Si
 1.0000000000000000
     5.4699999999999998    5.4699999999999998    0.0000000000000000
     0.0000000000000000    5.4699999999999998    5.4699999999999998
     5.4699999999999998    0.0000000000000000    5.4699999999999998
 Si 
  15
Direct
 -0.0003450627130490 -0.0003450627130491 -0.0003450627130492
  0.1260715778686526  0.1260715778686523  0.1260715778686523
 -0.0011619313411714 -0.0011619313411714  0.5037612427028636
  0.1269877862522981  0.1269877862522981  0.6219635340563456
 -0.0011619313411715  0.5037612427028637 -0.0011619313411713
  0.1269877862522980  0.6219635340563459  0.1269877862522980
 -0.0175479977285551  0.5039579584838356  0.5039579584838358
  0.1434171204668984  0.6218645144397328  0.6218645144397328
  0.5037612427028638 -0.0011619313411712 -0.0011619313411713
  0.6219635340563460  0.1269877862522983  0.1269877862522981
  0.5039579584838362 -0.0175479977285518  0.5039579584838358
  0.6218645144397332  0.1434171204669014  0.6218645144397331
  0.5039579584838358  0.5039579584838362 -0.0175479977285516
  0.6218645144397330  0.6218645144397332  0.1434171204669017
  0.5629786262784009  0.5629786262783937  0.5629786262783933
