Si
 1.0000000000000000
     5.4699999999999998    5.4699999999999998    0.0000000000000000
     0.0000000000000000    5.4699999999999998    5.4699999999999998
     5.4699999999999998    0.0000000000000000    5.4699999999999998
 Si 
  15
Direct
 -0.0001570607712548 -0.0001570607712531 -0.0001570607712539
  0.1257986251413978  0.1257986251413970  0.1257986251413971
 -0.0011327325655184 -0.0011327325655178  0.5035339061804321
  0.1269824114555916  0.1269824114555902  0.6221119681209146
 -0.0011327325655184  0.5035339061804325 -0.0011327325655187
  0.1269824114555920  0.6221119681209143  0.1269824114555906
 -0.0186529462635196  0.5038284531230354  0.5038284531230354
  0.1446302756276891  0.6220171895832949  0.6220171895832960
  0.5035339061804316 -0.0011327325655177 -0.0011327325655180
  0.6221119681209157  0.1269824114555911  0.1269824114555907
  0.5038284531230349 -0.0186529462635172  0.5038284531230353
  0.6220171895832959  0.1446302756276911  0.6220171895832951
  0.5038284531230347  0.5038284531230353 -0.0186529462635170
  0.6220171895832959  0.6220171895832951  0.1446302756276913
  0.5629402530080958  0.5629402530080915  0.5629402530080911
