B  N  Re
 1.0000000000000000
    30.3593997954999999    0.0000000000000000    0.0000000000000000
   -15.1797909235000006   26.2919589125999984    0.0000000000000000
     0.0000000000000000    0.0000000000000000   26.6613006591999984
 B   N   Re 
 144 144 363
Selective dynamics
Direct
  0.3627717801303245  0.9007670389525314  0.3318040189740432   T   T   T
  0.6243828260545785  0.6372361214587804  0.3314121700994617   T   T   T
  0.7097194933816972  0.6376984210848163  0.3369889294737489   T   T   T
  0.7821215470624808  0.6394725755184335  0.3852374173428302   T   T   T
  0.8573792292745065  0.6394801638424729  0.3850997686140539   T   T   T
  0.9279121301304040  0.6376310840867843  0.3369560565350437   T   T   T
  0.0137293501567123  0.7248625463993744  0.3315603520870404   T   T   T
  0.5380478421162374  0.6373305157810399  0.3318561933149496   T   T   T
  0.0996371056021699  0.7248516638211870  0.3309830569852212   T   T   T
  0.2747202942134798  0.7253114949970587  0.3338771004286159   T   T   T
  0.3627003615564395  0.7253996948336907  0.3342490866105737   T   T   T
  0.4506090038286856  0.7253700486170181  0.3338594771054686   T   T   T
  0.5381699532510151  0.7251994456656825  0.3328044881171239   T   T   T
  0.6250061452284394  0.7248755787027412  0.3311288861395785   T   T   T
  0.7109200342973948  0.7249058795554317  0.3320242852659318   T   T   T
  0.1869138793343394  0.7250829484910145  0.3328006138253501   T   T   T
  0.7903555470777469  0.7245828675761262  0.3598135772140221   T   T   T
  0.4506042898882270  0.6373927642169999  0.3334903324005922   T   T   T
  0.2746933462804551  0.6373921073584481  0.3342526192404441   T   T   T
  0.0990315399212450  0.5495787783251462  0.3321319209557718   T   T   T
  0.1867642871581991  0.5495010647087857  0.3334569294212572   T   T   T
  0.2747719994299195  0.5495401307054977  0.3339015285032887   T   T   T
  0.3628002913205272  0.5495813183342018  0.3335386688000987   T   T   T
  0.4505687717026722  0.5496197205181418  0.3321756498511997   T   T   T
  0.5377795676167662  0.5500117816552416  0.3312496455943452   T   T   T
  0.3627236092476984  0.6374208624765078  0.3342684105483707   T   T   T
  0.6239954801346197  0.5499579293156408  0.3313092674422474   T   T   T
  0.7779970183118302  0.5560481072847427  0.3985902787608321   T   T   T
  0.8542659125839899  0.5542628820539537  0.3744446864385987   T   T   T
  0.9259452032087284  0.5498783873546089  0.3314921778748530   T   T   T
  0.0128077979303822  0.6370957530785366  0.3313687574902964   T   T   T
  0.0992177778030683  0.6372734269282648  0.3318742359375270   T   T   T
  0.1867502497289515  0.6372937378762594  0.3334578390532223   T   T   T
  0.6999396283243929  0.5543051841736226  0.3745314928787705   T   T   T
  0.0122119836622884  0.5498600369724260  0.3312931259364214   T   T   T
  0.8620329272942368  0.7241255132620404  0.3967044590007495   T   T   T
  0.0143420089451515  0.8126000471918902  0.3393981725506766   T   T   T
  0.7117277370586081  0.8995662388641832  0.3315534623685873   T   T   T
  0.7962713784504046  0.8981750242040848  0.3399129497245751   T   T   T
  0.8693888580117597  0.8923251243168668  0.3805076734142556   T   T   T
  0.9447314921874418  0.8893734967280642  0.4077071671302698   T   T   T
  0.0275296773763491  0.9721210965186408  0.4111724778976259   T   T   T
  0.1077793832530016  0.9760208458403836  0.3818303359266458   T   T   T
  0.6251466938512853  0.9003417292877847  0.3310776715716107   T   T   T
  0.1879414446577095  0.9840613946166914  0.3432165203501322   T   T   T
  0.3628437371625964  0.9871777344054256  0.3312004805831473   T   T   T
  0.4501214872710551  0.9878331349444610  0.3311671255553604   T   T   T
  0.5376001774085991  0.9878327382838065  0.3313254654311252   T   T   T
  0.6241851326869375  0.9871570067345155  0.3315092160557992   T   T   T
  0.7109513845975254  0.9861646882487822  0.3320210450252015   T   T   T
  0.7980815947409613  0.9854838190653676  0.3404335072851186   T   T   T
  0.2751195376698956  0.9859129558161341  0.3316289599465190   T   T   T
  0.9338818920173819  0.7245708738951280  0.3588083386708668   T   T   T
  0.5380183678865541  0.9008284445099007  0.3318799533861615   T   T   T
  0.2751828481764985  0.9001376096048866  0.3310250037382407   T   T   T
  0.1003883654391635  0.8121685676140185  0.3313222502271392   T   T   T
  0.1872900634311652  0.8124952561911952  0.3311723793610282   T   T   T
  0.2748776582036160  0.8130027648535407  0.3327878777807087   T   T   T
  0.3627378520579447  0.8132880039497065  0.3334805732808307   T   T   T
  0.4505597163394365  0.8133253445642921  0.3334638532879327   T   T   T
  0.5381760685721588  0.8131311109180425  0.3327892361916686   T   T   T
  0.4505114302071316  0.9010389671607353  0.3321265140164263   T   T   T
  0.6252456225050765  0.8127277960700555  0.3312490892269876   T   T   T
  0.7967407714989289  0.8122452333239374  0.3428268688808389   T   T   T
  0.8635998931793528  0.8075505382532071  0.3922334150774756   T   T   T
  0.9436685972125413  0.8076646313893751  0.3910321533274717   T   T   T
  0.0228414727029092  0.8923110047745771  0.3796365249243207   T   T   T
  0.1016774081767165  0.8981068666433611  0.3395047244763187   T   T   T
  0.1877455063637195  0.8990543437243576  0.3313995574063334   T   T   T
  0.7114376871558444  0.8122577288557431  0.3314365616041525   T   T   T
  0.9261698934879405  0.4631478542788483  0.3313046714141881   T   T   T
  0.8526736859555910  0.4688515793722206  0.3703772869474807   T   T   T
  0.7769040873696345  0.4722716024015746  0.3972613631286251   T   T   T
  0.5311132546031431  0.1474025542203120  0.3699548998258959   T   T   T
  0.6160039090497028  0.1473250939865903  0.3704526717213589   T   T   T
  0.6998297497684346  0.1456800975608806  0.3749788968408190   T   T   T
  0.7820530535926554  0.1426818085135756  0.3859524208129092   T   T   T
  0.8622336329571780  0.1380438901968370  0.3972573318894428   T   T   T
  0.9442252065622060  0.1365224786345340  0.3922401068200764   T   T   T
  0.4456534928014066  0.1458112838752855  0.3734495663486587   T   T   T
  0.0155620268224269  0.2033904462703858  0.3424834160569746   T   T   T
  0.1886617087372380  0.2040812934958108  0.3381262245845514   T   T   T
  0.2752190803179386  0.2068880927203889  0.3505960514739386   T   T   T
  0.3602469769658666  0.2177728714916652  0.3819162161762775   T   T   T
  0.4437390907702226  0.2220491078312215  0.3970092815287559   T   T   T
  0.5275370744379344  0.2230633467408843  0.3967388190559788   T   T   T
  0.6113595738798107  0.2231150833608442  0.3967269582294470   T   T   T
  0.1019841214521683  0.2035996265070043  0.3383650916229417   T   T   T
  0.6951422279954190  0.2230758905540545  0.3974875768493680   T   T   T
  0.3604553332952975  0.1427939921318548  0.3834188818159027   T   T   T
  0.1922891873260995  0.1324529759967471  0.3828218050865803   T   T   T
  0.0276390750749073  0.0544773191229141  0.4097858972262868   T   T   T
  0.1106452012302155  0.0543629281729571  0.4072287016151117   T   T   T
  0.1928087662728021  0.0548096303382189  0.3934252249025557   T   T   T
  0.2754988822342807  0.0655500730634204  0.3588572474191197   T   T   T
  0.3622614007105494  0.0722296461119665  0.3356979035708054   T   T   T
  0.4501280633058194  0.0740970060787744  0.3309441907145497   T   T   T
  0.2758089868010025  0.1372887148902177  0.3941457604794871   T   T   T
  0.5369091141156247  0.0738804126720179  0.3311803907204413   T   T   T
  0.7093591705417349  0.0717837693519043  0.3380837169971269   T   T   T
  0.7903462164882191  0.0657584685764098  0.3603780563703023   T   T   T
  0.8642569991734887  0.0563110912919147  0.3914704496796328   T   T   T
  0.9452554001008838  0.0553395585434612  0.4072503610953130   T   T   T
  0.0230731825649754  0.1306548338675224  0.3797101982662585   T   T   T
  0.1056256126859259  0.1262317056902464  0.3719585625972381   T   T   T
  0.6238445740721535  0.0740642809676839  0.3316504690749807   T   T   T
  0.7779448721194516  0.2220698269830988  0.3989229690548859   T   T   T
  0.8573947324534935  0.2180337163246411  0.3857711977049768   T   T   T
  0.9345351144071671  0.2100197296781592  0.3605968702937160   T   T   T
  0.6114157812568366  0.3884910120309263  0.3968358784583923   T   T   T
  0.6943391265168541  0.3889552382531876  0.3971262059484952   T   T   T
  0.7768111265229586  0.3884931492374730  0.3966668361501691   T   T   T
  0.8526554062881333  0.3839578322851780  0.3703958592330883   T   T   T
  0.9260230490710066  0.3762596809149760  0.3316159069741432   T   T   T
  0.0122446652587171  0.4624134122735891  0.3313144285431683   T   T   T
  0.5312001871833492  0.3839793109697039  0.3700188735407602   T   T   T
  0.0993071314263078  0.4621290141625149  0.3318502699396533   T   T   T
  0.2749882304864006  0.4619863119009718  0.3327864240455137   T   T   T
  0.3628587762507806  0.4620895956469757  0.3318684107569850   T   T   T
  0.4503105358538837  0.4625349523162623  0.3311852334599859   T   T   T
  0.5370952360885847  0.4632851410866862  0.3311129137200849   T   T   T
  0.6161159602948594  0.4688973787991891  0.3703920346009521   T   T   T
  0.6952174477619912  0.4722830748745498  0.3974505637379671   T   T   T
  0.1870261829743994  0.4619130992026008  0.3327446413327755   T   T   T
  0.4503764322142260  0.3763538638729713  0.3307416078836769   T   T   T
  0.3630597895498625  0.3757622025181815  0.3310460836456769   T   T   T
  0.2752896477758388  0.3750431961899436  0.3310135264075896   T   T   T
  0.0140304903647569  0.2892589472510306  0.3320624981641552   T   T   T
  0.1008938214901991  0.2887284570373720  0.3312130995989131   T   T   T
  0.1880123337812388  0.2885817023930636  0.3317564729848781   T   T   T
  0.2755839717350106  0.2895953852411285  0.3314714982550677   T   T   T
  0.3627558527417143  0.2898308287921006  0.3335594443347185   T   T   T
  0.4458038204438973  0.2999368118321220  0.3727255926835719   T   T   T
  0.5275874231802297  0.3047367682675168  0.3967711032361091   T   T   T
  0.6109114773583680  0.3055661757581744  0.3971017579815260   T   T   T
  0.6943184816066739  0.3055640362502103  0.3970524768349612   T   T   T
  0.7768696991432880  0.3047776156640702  0.3973222418058866   T   T   T
  0.8542984596732529  0.3001715852738709  0.3747438581806811   T   T   T
  0.9282146851467553  0.2906803356406157  0.3376953692627872   T   T   T
  0.0129180932662250  0.3758429595315987  0.3314828894830913   T   T   T
  0.0999254535655410  0.3751585249092940  0.3310131519160402   T   T   T
  0.1874760206832167  0.3748312228086115  0.3312608293378104   T   T   T
  0.8696494156336646  0.9770938370379867  0.3800780841491212   T   T   T
  0.9453502816817224  0.9725067843189091  0.4104611334152016   T   T   T
  0.9178013275436339  0.9174525360212137  0.4061397811178793   T   T   T
  0.0827886738461820 -0.0006569695820443  0.4077986377166959   T   T   T
  0.6801252994380322  0.5798806277200805  0.3429672920429236   T   T   T
  0.7517393817212501  0.5847202007792338  0.3920061140873075   T   T   T
  0.8329353742982342  0.5847145003961783  0.3919193524421510   T   T   T
  0.8998193309302781  0.5798535233849892  0.3431170889850628   T   T   T
  0.9853914461477640  0.6668952163585660  0.3342306499701026   T   T   T
  0.0704933955404834  0.6665299350113025  0.3342028287751185   T   T   T
  0.5953726567403487  0.5795176649686912  0.3333543575909234   T   T   T
  0.1575373593758007  0.6665695828416611  0.3359076526057372   T   T   T
  0.3333724435858721  0.6667385736319920  0.3373079803812990   T   T   T
  0.4213432336670933  0.6667389303375048  0.3370018160023860   T   T   T
  0.5090622632503803  0.6666719078438937  0.3359088734562123   T   T   T
  0.5960151877803169  0.6665884083477878  0.3342053521898384   T   T   T
  0.6814507989041345  0.6669518372858703  0.3342177107650888   T   T   T
  0.7632745103285509  0.6677255752419996  0.3563739392856846   T   T   T
  0.2453658215356053  0.6666783824308700  0.3369966020502841   T   T   T
  0.8344264534935575  0.6687618487232534  0.4013664115187428   T   T   T
  0.5088605979444917  0.5790013447583952  0.3347401888707936   T   T   T
  0.3334142628039987  0.5788071513316154  0.3370242113800245   T   T   T
  0.1576118016283120  0.4910604004658393  0.3358722640996541   T   T   T
  0.2455365268473153  0.4910570604815685  0.3363220382984390   T   T   T
  0.3335339221139008  0.4911194405075398  0.3359483724178879   T   T   T
  0.4212073791503999  0.4913439659924305  0.3347603082081449   T   T   T
  0.5081924211642425  0.4921524530213010  0.3335525398640216   T   T   T
  0.5938510070776660  0.4931812950207373  0.3404738980572858   T   T   T
  0.0002400923463460  0.9998137638197578  0.4170081622990207   T   T   T
  0.6688992839020022  0.5001035130884955  0.3855312266265716   T   T   T
  0.8310626789317697  0.5000559436044056  0.3854074733487967   T   T   T
  0.8992934017185945  0.4930691249192458  0.3405461818333558   T   T   T
  0.9841125469322181  0.5793532166048212  0.3334739621772623   T   T   T
  0.0701125858031835  0.5789339804084523  0.3347298095180822   T   T   T
  0.1574539287122731  0.5787497302873477  0.3362400147709974   T   T   T
  0.2453758352623838  0.5787764806571395  0.3369997094304584   T   T   T
  0.7502195409787837  0.5005500290355185  0.4013406104133174   T   T   T
  0.0701438703065722  0.4912963573116755  0.3347417806989606   T   T   T
  0.9042054770761012  0.6675789539898979  0.3558244587756166   T   T   T
  0.0714062361173936  0.7541972997431446  0.3331661164305750   T   T   T
  0.6831005587470828  0.8416897523361635  0.3336657552709947   T   T   T
  0.7678864780342964  0.8408737769674214  0.3361816917134377   T   T   T
  0.8409568935578478  0.8371613089528066  0.3752375306222234   T   T   T
  0.9170613149279309  0.8342715720561722  0.4047943400666733   T   T   T
  0.9997303799496057  0.9171990510581531  0.4059453528114640   T   T   T
  0.0757135677922471  0.9239840487904670  0.3622481788633873   T   T   T
  0.5963130752115209  0.8421632145612246  0.3348778368225345   T   T   T
  0.1590507501391026  0.9267674356160210  0.3360444368361505   T   T   T
  0.3334843000023494  0.9294422655212093  0.3341211413217779   T   T   T
  0.4211110736646592  0.9299195781158889  0.3347129755964989   T   T   T
  0.5087874380341507  0.9299481358391497  0.3347416016502748   T   T   T
  0.5959734794596682  0.9295072846375977  0.3342299109652555   T   T   T
  0.6826973234640453  0.9285071387548486  0.3333764814540299   T   T   T
  0.7681940362736144  0.9272603369017082  0.3357192710443704   T   T   T
  0.2457708959786198  0.9282442248142084  0.3333073123234566   T   T   T
  0.9864117018213332  0.7538536904705343  0.3393081062981892   T   T   T
  0.5090315171782521  0.8425222089980569  0.3358955930877119   T   T   T
  0.3334272428665842  0.8424362616786442  0.3358970984561393   T   T   T
  0.1578487651213395  0.7541460345955939  0.3348578249566892   T   T   T
  0.2454395362528796  0.7545176645802822  0.3363254028741911   T   T   T
  0.3333737218791944  0.7546854759503283  0.3369980147592699   T   T   T
  0.4213225495940092  0.7547186644998929  0.3369844975183289   T   T   T
  0.5091017990102124  0.7546219865967495  0.3363150004958379   T   T   T
  0.5962794907145944  0.7543141928920047  0.3349073270341356   T   T   T
  0.4212946876373541  0.8426124151724212  0.3362482580409649   T   T   T
  0.6825461111448913  0.7542811663248908  0.3334674963595939   T   T   T
  0.8351638096735964  0.7517429590952156  0.3900380920408462   T   T   T
  0.9163554071680785  0.7518522382179641  0.3889931182851528   T   T   T
  0.9954580535742069  0.8373575405103992  0.3730853473760115   T   T   T
  0.0727036830309185  0.8410044114543647  0.3352657185419580   T   T   T
  0.1582925415615205  0.8413445324175107  0.3335700142821800   T   T   T
  0.2457410012851773  0.8419691024063249  0.3348661315776754   T   T   T
  0.7669646527567947  0.7539522237358073  0.3409674938820319   T   T   T
  0.9839518719758409  0.4919954444262394  0.3336377712862157   T   T   T
  0.4213518134687355  0.5788326695159044  0.3362912845946829   T   T   T
  0.8309348178815220  0.4155477254163278  0.3844432302935085   T   T   T
  0.5936926044027450  0.1007325869895017  0.3405813887377467   T   T   T
  0.6799090930135882  0.1001389604792847  0.3435806985371306   T   T   T
  0.7627511916052547  0.0951550793926858  0.3577220257505497   T   T   T
  0.8356587168284150  0.0836313994838779  0.3898671765778747   T   T   T
  0.9176878497236488  0.0829723473784306  0.4045425383341963   T   T   T
  0.9965110888113318  0.1593159356939543  0.3751490070349121   T   T   T
  0.5069127091340514  0.1007029807297624  0.3402719266755043   T   T   T
  0.0755703215734691  0.1513560027781952  0.3603252808702471   T   T   T
  0.2475730631870538  0.1626886294051172  0.3822052481840397   T   T   T
  0.3309839859665690  0.1657665843977012  0.3988612101498034   T   T   T
  0.4151389909960909  0.1671859145087985  0.3904355487374710   T   T   T
  0.4998108903374030  0.1689604630220121  0.3847717008499600   T   T   T
  0.5843588060612817  0.1690452847654559  0.3843122413303842   T   T   T
  0.6687875879353588  0.1688971120794232  0.3856892790000551   T   T   T
  0.1610082374654142  0.1514437835603564  0.3599776803747846   T   T   T
  0.7516441179972152  0.1670743738526672  0.3925860829647056   T   T   T
  0.8993401383100698  0.4063622843867260  0.3406419360641182   T   T   T
  0.3321592661018136  0.0958982466608416  0.3542951786484382   T   T   T
  0.1630970640531008  0.0025349780719582  0.3768109986669217   T   T   T
  0.2459882362864469  0.0129000271788368  0.3398599452165089   T   T   T
  0.3329979571247954  0.0144854181374239  0.3338272064252506   T   T   T
  0.4205831598055581  0.0158978393253481  0.3332111118872726   T   T   T
  0.5080104429593307  0.0161057748171810  0.3335665283136852   T   T   T
  0.5951804320069169  0.0158907759255069  0.3335061445343626   T   T   T
  0.4201028278427268  0.1002821702110444  0.3421760023716154   T   T   T
  0.6812980726644393  0.0144892725839962  0.3345345803048734   T   T   T
  0.8418495531070319  0.0043246012487354  0.3740004963679080   T   T   T
  0.9181430255336820  0.0003447959020882  0.4055236994499138   T   T   T
  1.0003195009760288  0.0822976201836517  0.4054559146311356   T   T   T
  0.0827430809972270  0.0813991434831482  0.4027549580241108   T   T   T
  0.1658758433430661  0.0819973603155837  0.4042630186415137   T   T   T
  0.2485037625316790  0.0824188936331123  0.3904041328026157   T   T   T
  0.7671992783613767  0.0133895258141744  0.3405471167430564   T   T   T
  0.8344331344168948  0.1657115552251731  0.4019450698450165   T   T   T
  0.8479535731785423  0.9239919512569656  0.3631273261582860   T   T   T
  0.9870969504148505  0.2332483252794000  0.3411575755133100   T   T   T
  0.6665209696893596  0.3333585532764679  0.4014176905340081   T   T   T
  0.7500083362870111  0.3332573606303282  0.3997943608213142   T   T   T
  0.8310525888313091  0.3311599357002720  0.3855275896835743   T   T   T
  0.8998813029529712  0.3201533829673813  0.3433942922967306   T   T   T
  0.9841840006541654  0.4048489977191315  0.3334702357637797   T   T   T
  0.1580749740240630  0.4038086215331182  0.3348093363535952   T   T   T
  0.5829162533576352  0.3332426486160185  0.3998772465298897   T   T   T
  0.2458481809851513  0.4038014804376494  0.3349003884711597   T   T   T
  0.4208116339118299  0.4049100470828176  0.3331649009572235   T   T   T
  0.5071380071871796  0.4065117288223094  0.3402037365241966   T   T   T
  0.5844258378993482  0.4155669688292305  0.3844056005555580   T   T   T
  0.6666627406499530  0.4169369041972518  0.4001005860026075   T   T   T
  0.7500233606207233  0.4169368296105999  0.3997720432383715   T   T   T
  0.9167689038796728  0.1649445486697932  0.3904664269414515   T   T   T
  0.3335830559666426  0.4040906610466525  0.3341681769163978   T   T   T
  0.4998445051264563  0.3310597927470519  0.3846313581815296   T   T   T
  0.0706178944103514  0.4041588252785979  0.3341693364554014   T   T   T
  0.3332673917451844  0.3184485840049894  0.3334928757149637   T   T   T
  0.0730096247883423  0.2321494089257803  0.3354726676801804   T   T   T
  0.4204247277914637  0.3200295697319758  0.3414209391991602   T   T   T
  0.1594611904014613  0.2320895650856108  0.3353638479789311   T   T   T
  0.2463630686889383  0.2331772783187632  0.3368854180993996   T   T   T
  0.3327583234239384  0.2351966569667746  0.3499103953691023   T   T   T
  0.4150027987816632  0.2480873450955868  0.3895928586911373   T   T   T
  0.5828796516321784  0.2498897692247892  0.3996920344086111   T   T   T
  0.6666111732295457  0.2498961813354030  0.4000449303907009   T   T   T
  0.4992297989263231  0.2497589674810067  0.4004193982258560   T   T   T
  0.8329266978342899  0.2483751242931171  0.3923596251971138   T   T   T
  0.9048551066107863  0.2372418474979443  0.3573968510825008   T   T   T
  0.9856092124517426  0.3188029794858757  0.3344039508806353   T   T   T
  0.0717860525942623  0.3175798543346055  0.3333349833676384   T   T   T
  0.1586884938614624  0.3170772679995227  0.3335906608157582   T   T   T
  0.2459857420777581  0.3174624159630272  0.3333918422631943   T   T   T
  0.7501564826210682  0.2498004792713532  0.4014418346378816   T   T   T
  0.3030300140000008  0.9696999789999978  0.1665699930000031   F   F   F
  0.2424200029999994  0.9393900040000034  0.0832799969999982   F   F   F
  0.3333366763607652  0.9370033509442537  0.2529784370809244   T   T   T
  0.3333300050000005  0.9393900040000034  0.0832799969999982   F   F   F
  0.2121199970000021  0.9696999789999978  0.1665699930000031   F   F   F
  0.2421298880948879  0.9377036469863684  0.2526078639370814   T   T   T
  0.1212100010000015  0.9696999789999978  0.1665699930000031   F   F   F
  0.9696999789999979  0.8484899999999982  0.0832799969999982   F   F   F
  0.1515100000000018  0.9393900040000034  0.0832799969999982   F   F   F
  0.0303000010000005  0.9696999789999978  0.1665699930000031   F   F   F
  0.0584614382794647  0.9473928363490316  0.2888932099681163   T   T   T
  0.0606099999999969  0.9393900040000034  0.0832799969999982   F   F   F
  0.9393900040000034  0.8787900210000004  0.1665699930000031   F   F   F
  0.9707173947631446  0.8496593051648601  0.2562085314159291   T   T   T
  0.4242399930000005  0.9393900040000034  0.0832799969999982   F   F   F
  0.1488357609316454  0.9417669317713951  0.2579318970916717   T   T   T
  0.4229660484674175  0.9358296350776997  0.2534844734364217   T   T   T
  0.9733001834319056  0.9403583368599073  0.2576618396704736   T   T   T
  0.5151500110000029  0.9393900040000034  0.0832799969999982   F   F   F
  0.9393900040000034  0.9696999789999978  0.1665699930000031   F   F   F
  0.9696999789999979  0.9393900040000034  0.0832799969999982   F   F   F
  0.8484899999999982  0.9696999789999978  0.1665699930000031   F   F   F
  0.8876392745630085  0.9418710287915862  0.2895463792420717   T   T   T
  0.8787900210000004  0.9393900040000034  0.0832799969999982   F   F   F
  0.7575799820000030  0.9696999789999978  0.1665699930000031   F   F   F
  0.7937230528739768  0.9401885065853199  0.2575085418355401   T   T   T
  0.3939400020000008  0.9696999789999978  0.1665699930000031   F   F   F
  0.7878800029999979  0.9393900040000034  0.0832799969999982   F   F   F
  0.6959274433747739  0.9381914461728742  0.2527482960976566   T   T   T
  0.6969699859999993  0.9393900040000034  0.0832799969999982   F   F   F
  0.5757600069999996  0.9696999789999978  0.1665699930000031   F   F   F
  0.6041513412792696  0.9373516511620836  0.2530354162588634   T   T   T
  0.6060600280000018  0.9393900040000034  0.0832799969999982   F   F   F
  0.4848499889999972  0.9696999789999978  0.1665699930000031   F   F   F
  0.5131456355431626  0.9359689891545357  0.2534883072407734   T   T   T
  0.6666700239999984  0.9696999789999978  0.1665699930000031   F   F   F
  0.8484899999999982  0.8787900210000004  0.1665699930000031   F   F   F
  0.0606099999999969  0.0303000010000005  0.0832799969999982   F   F   F
  0.7575799820000030  0.8787900210000004  0.1665699930000031   F   F   F
  0.1531395555189185  0.3051290169715100  0.2527285049420498   T   T   T
  0.1212100010000015  0.3333300050000005  0.1665699930000031   F   F   F
  0.2424200029999994  0.3030300140000008  0.0832799969999982   F   F   F
  0.2412266510139213  0.3042611775593437  0.2525256453998547   T   T   T
  0.2121199970000021  0.3333300050000005  0.1665699930000031   F   F   F
  0.3333300050000005  0.3030300140000008  0.0832799969999982   F   F   F
  0.3348467243395237  0.3057040711380953  0.2533748832688952   T   T   T
  0.1515100000000018  0.3030300140000008  0.0832799969999982   F   F   F
  0.3030300140000008  0.3333300050000005  0.1665699930000031   F   F   F
  0.4278870357305745  0.3000503574623875  0.2643577088414572   T   T   T
  0.3939400020000008  0.3333300050000005  0.1665699930000031   F   F   F
  0.5151500110000029  0.3030300140000008  0.0832799969999982   F   F   F
  0.5224453643207287  0.3024882488227070  0.2555068129634216   T   T   T
  0.4848499889999972  0.3333300050000005  0.1665699930000031   F   F   F
  0.6060600280000018  0.3030300140000008  0.0832799969999982   F   F   F
  0.6070629881202297  0.3033581882786462  0.2958393775748279   T   T   T
  0.4242399930000005  0.3030300140000008  0.0832799969999982   F   F   F
  0.5757600069999996  0.3333300050000005  0.1665699930000031   F   F   F
  0.0303000010000005  0.3333300050000005  0.1665699930000031   F   F   F
  0.0606099999999969  0.3030300140000008  0.0832799969999982   F   F   F
  0.4848499889999972  0.2424200029999994  0.1665699930000031   F   F   F
  0.6060600280000018  0.2121199970000021  0.0832799969999982   F   F   F
  0.6154621731528349  0.2290740058220882  0.2560752523030240   T   T   T
  0.5757600069999996  0.2424200029999994  0.1665699930000031   F   F   F
  0.6969699859999993  0.2121199970000021  0.0832799969999982   F   F   F
  0.6986368505530934  0.2186971514647848  0.2558767623479404   T   T   T
  0.6666700239999984  0.2424200029999994  0.1665699930000031   F   F   F
  0.0619105833332038  0.3051013132431527  0.2527236564869272   T   T   T
  0.7878800029999979  0.2121199970000021  0.0832799969999982   F   F   F
  0.7575799820000030  0.2424200029999994  0.1665699930000031   F   F   F
  0.8787900210000004  0.2121199970000021  0.0832799969999982   F   F   F
  0.8740926709774521  0.2095548619005105  0.2819173726331528   T   T   T
  0.8484899999999982  0.2424200029999994  0.1665699930000031   F   F   F
  0.9696999789999979  0.2121199970000021  0.0832799969999982   F   F   F
  0.9639469385343709  0.2077126654779131  0.2643489315341000   T   T   T
  0.9393900040000034  0.2424200029999994  0.1665699930000031   F   F   F
  0.7876543020625313  0.2126882988848397  0.2510898957381053   T   T   T
  0.6969699859999993  0.3030300140000008  0.0832799969999982   F   F   F
  0.6977254466252939  0.3030987201684793  0.2956208189886542   T   T   T
  0.6666700239999984  0.3333300050000005  0.1665699930000031   F   F   F
  0.4242399930000005  0.3939400020000007  0.0832799969999982   F   F   F
  0.4255927014551867  0.3960523755155986  0.2527977676081271   T   T   T
  0.3939400020000008  0.4242399930000005  0.1665699930000031   F   F   F
  0.5151500110000029  0.3939400020000007  0.0832799969999982   F   F   F
  0.5228271648466951  0.3927158150119771  0.2635345219181581   T   T   T
  0.4848499889999972  0.4242399930000005  0.1665699930000031   F   F   F
  0.6060600280000017  0.3939400020000007  0.0832799969999982   F   F   F
  0.3030300140000008  0.4242399930000005  0.1665699930000031   F   F   F
  0.6152385027237698  0.3859638576093678  0.2562880602779325   T   T   T
  0.6969699859999992  0.3939400020000007  0.0832799969999982   F   F   F
  0.6977048660480205  0.3942521351358488  0.2957412936523060   T   T   T
  0.6666700239999984  0.4242399930000005  0.1665699930000031   F   F   F
  0.7878800029999979  0.3939400020000007  0.0832799969999982   F   F   F
  0.7714924728896849  0.3854643022630376  0.2559658169940113   T   T   T
  0.7575799820000031  0.4242399930000005  0.1665699930000031   F   F   F
  0.8787900210000004  0.3939400020000007  0.0832799969999982   F   F   F
  0.5757600069999996  0.4242399930000005  0.1665699930000031   F   F   F
  0.3331792706406753  0.3965382123694427  0.2529806239623130   T   T   T
  0.3333300050000005  0.3939400020000007  0.0832799969999982   F   F   F
  0.2121199970000021  0.4242399930000005  0.1665699930000031   F   F   F
  0.7878800029999979  0.3030300140000008  0.0832799969999982   F   F   F
  0.7814785467581650  0.3017428782546160  0.2557129658903717   T   T   T
  0.7575799820000030  0.3333300050000005  0.1665699930000031   F   F   F
  0.8787900210000004  0.3030300140000008  0.0832799969999982   F   F   F
  0.8735579046784302  0.2990782017808485  0.2659526376144564   T   T   T
  0.8484899999999982  0.3333300050000005  0.1665699930000031   F   F   F
  0.9696999789999979  0.3030300140000008  0.0832799969999982   F   F   F
  0.9695616559047190  0.3038159814366546  0.2540902391159012   T   T   T
  0.9393900040000034  0.3333300050000005  0.1665699930000031   F   F   F
  0.0606099999999969  0.3939400020000007  0.0832799969999982   F   F   F
  0.0627492022289006  0.3964321593434952  0.2530295407978616   T   T   T
  0.0303000010000005  0.4242399930000005  0.1665699930000031   F   F   F
  0.1515100000000018  0.3939400020000007  0.0832799969999982   F   F   F
  0.1536681694737956  0.3969146836884139  0.2534767738379671   T   T   T
  0.1212100010000015  0.4242399930000005  0.1665699930000031   F   F   F
  0.2424200029999994  0.3939400020000007  0.0832799969999982   F   F   F
  0.2439242174354992  0.3982737242219192  0.2536218033158618   T   T   T
  0.5224752247946416  0.2195149101904971  0.2559856362869418   T   T   T
  0.5151500110000029  0.2121199970000021  0.0832799969999982   F   F   F
  0.3939400020000008  0.2424200029999994  0.1665699930000031   F   F   F