rhenium-001-11x11-3L-hbn-12x12-nonopt   
   1.00000000000000     
    30.3593997954999999    0.0000000000000000    0.0000000000000000
   -15.1797909235000006   26.2919589125999984    0.0000000000000000
     0.0000000000000000    0.0000000000000000   26.6613006591999984
   Re   B    N 
   363   144   144
Selective dynamics
Direct
  0.0606099999999969  0.0303000010000005  0.0832799969999982   F   F   F
  0.0607440277163036  0.0303708584170579  0.2476010684627639   T   T   T
  0.0303000010000005  0.0606099999999969  0.1665699930000031   F   F   F
  0.1515100000000018  0.0303000010000005  0.0832799969999982   F   F   F
  0.1516836487157889  0.0304828502787373  0.2471928436503390   T   T   T
  0.1212100010000015  0.0606099999999969  0.1665699930000031   F   F   F
  0.2424200029999994  0.0303000010000005  0.0832799969999982   F   F   F
  0.2429289510103132  0.0297101804084079  0.2502544323521576   T   T   T
  0.2121199970000021  0.0606099999999969  0.1665699930000031   F   F   F
  0.3333300050000005  0.0303000010000005  0.0832799969999982   F   F   F
  0.3332586190389009  0.0282918305780768  0.2476000493265715   T   T   T
  0.3030300140000008  0.0606099999999969  0.1665699930000031   F   F   F
  0.4242399930000005  0.0303000010000005  0.0832799969999982   F   F   F
  0.4232651932485325  0.0268476392888530  0.2464085544500421   T   T   T
  0.3939400020000008  0.0606099999999969  0.1665699930000031   F   F   F
  0.5151500110000029  0.0303000010000005  0.0832799969999982   F   F   F
  0.5132877851171784  0.0265772121130610  0.2461024314234237   T   T   T
  0.4848499889999971  0.0606099999999969  0.1665699930000031   F   F   F
  0.6060600280000017  0.0303000010000005  0.0832799969999982   F   F   F
  0.6034940888201135  0.0267834016109418  0.2463584883084167   T   T   T
  0.5757600069999995  0.0606099999999969  0.1665699930000031   F   F   F
  0.6969699859999992  0.0303000010000005  0.0832799969999982   F   F   F
  0.6949229724074328  0.0281805163357376  0.2475589455903133   T   T   T
  0.6666700239999983  0.0606099999999969  0.1665699930000031   F   F   F
  0.7878800029999979  0.0303000010000005  0.0832799969999982   F   F   F
  0.7867201412705001  0.0295446540486424  0.2501288927735814   T   T   T
  0.7575799820000029  0.0606099999999969  0.1665699930000031   F   F   F
  0.8787900210000004  0.0303000010000005  0.0832799969999982   F   F   F
  0.8787927455148221  0.0304734206508428  0.2472012075714289   T   T   T
  0.8484899999999982  0.0606099999999969  0.1665699930000031   F   F   F
  0.9696999789999978  0.0303000010000005  0.0832799969999982   F   F   F
  0.9696321680439439  0.0303829866587080  0.2475979760190157   T   T   T
  0.9393900040000034  0.0606099999999969  0.1665699930000031   F   F   F
  0.0606099999999969  0.1212100010000015  0.0832799969999982   F   F   F
  0.0606974247431253  0.1214353079616259  0.2473064361991320   T   T   T
  0.0303000010000005  0.1515100000000018  0.1665699930000031   F   F   F
  0.1515100000000018  0.1212100010000015  0.0832799969999982   F   F   F
  0.1516647979419403  0.1211872848547486  0.2472006686283308   T   T   T
  0.1212100010000015  0.1515100000000018  0.1665699930000031   F   F   F
  0.2424200029999994  0.1212100010000015  0.0832799969999982   F   F   F
  0.2426961522671149  0.1213550333739377  0.2469743551546060   T   T   T
  0.2121199970000021  0.1515100000000018  0.1665699930000031   F   F   F
  0.3333300050000005  0.1212100010000015  0.0832799969999982   F   F   F
  0.3336108482117979  0.1216098439823909  0.2473073853417063   T   T   T
  0.3030300140000008  0.1515100000000018  0.1665699930000031   F   F   F
  0.4242399930000005  0.1212100010000015  0.0832799969999982   F   F   F
  0.4238303826779202  0.1202881211122744  0.2505456091767684   T   T   T
  0.3939400020000008  0.1515100000000018  0.1665699930000031   F   F   F
  0.5151500110000029  0.1212100010000015  0.0832799969999982   F   F   F
  0.5147523645638969  0.1200093204401185  0.2493845230278993   T   T   T
  0.4848499889999971  0.1515100000000018  0.1665699930000031   F   F   F
  0.6060600280000017  0.1212100010000015  0.0832799969999982   F   F   F
  0.6052138305827484  0.1200320389709333  0.2492783069674829   T   T   T
  0.5757600069999995  0.1515100000000018  0.1665699930000031   F   F   F
  0.6969699859999992  0.1212100010000015  0.0832799969999982   F   F   F
  0.6963549479939104  0.1202279602744127  0.2505875810767932   T   T   T
  0.6666700239999983  0.1515100000000018  0.1665699930000031   F   F   F
  0.7878800029999979  0.1212100010000015  0.0832799969999982   F   F   F
  0.7878885323285587  0.1214974006918368  0.2475426015295383   T   T   T
  0.7575799820000029  0.1515100000000018  0.1665699930000031   F   F   F
  0.8787900210000004  0.1212100010000015  0.0832799969999982   F   F   F
  0.8786442438116140  0.1213495315567883  0.2469697094082832   T   T   T
  0.8484899999999982  0.1515100000000018  0.1665699930000031   F   F   F
  0.9696999789999978  0.1212100010000015  0.0832799969999982   F   F   F
  0.9695100572876640  0.1212004294457998  0.2471960327154150   T   T   T
  0.9393900040000034  0.1515100000000018  0.1665699930000031   F   F   F
  0.0606099999999969  0.2121199970000021  0.0832799969999982   F   F   F
  0.0616249629427230  0.2137977219278824  0.2489135279096786   T   T   T
  0.0303000010000005  0.2424200029999994  0.1665699930000031   F   F   F
  0.1515100000000018  0.2121199970000021  0.0832799969999982   F   F   F
  0.1521205243352171  0.2137690471711480  0.2488602602602725   T   T   T
  0.1212100010000015  0.2424200029999994  0.1665699930000031   F   F   F
  0.2424200029999994  0.2121199970000021  0.0832799969999982   F   F   F
  0.2428153331501264  0.2133073627567015  0.2501047048421299   T   T   T
  0.2121199970000021  0.2424200029999994  0.1665699930000031   F   F   F
  0.3333300050000005  0.2121199970000021  0.0832799969999982   F   F   F
  0.3335805117042838  0.2121015206480052  0.2476183496576212   T   T   T
  0.3030300140000008  0.2424200029999994  0.1665699930000031   F   F   F
  0.4242399930000005  0.2121199970000021  0.0832799969999982   F   F   F
  0.4249156218701344  0.2124500004778582  0.2470778821951711   T   T   T
  0.3939400020000008  0.2424200029999994  0.1665699930000031   F   F   F
  0.5151500110000029  0.2121199970000021  0.0832799969999982   F   F   F
  0.5153446714599355  0.2122977994771915  0.2473089923891223   T   T   T
  0.4848499889999971  0.2424200029999994  0.1665699930000031   F   F   F
  0.6060600280000017  0.2121199970000021  0.0832799969999982   F   F   F
  0.6061575079325152  0.2123242304211033  0.2473981448614069   T   T   T
  0.5757600069999995  0.2424200029999994  0.1665699930000031   F   F   F
  0.6969699859999992  0.2121199970000021  0.0832799969999982   F   F   F
  0.6969749359732162  0.2123085778946603  0.2473196216021236   T   T   T
  0.6666700239999983  0.2424200029999994  0.1665699930000031   F   F   F
  0.7878800029999979  0.2121199970000021  0.0832799969999982   F   F   F
  0.7875472250691473  0.2124609891401263  0.2470753814829862   T   T   T
  0.7575799820000029  0.2424200029999994  0.1665699930000031   F   F   F
  0.8787900210000004  0.2121199970000021  0.0832799969999982   F   F   F
  0.8784457247742594  0.2120062661921551  0.2474066024361647   T   T   T
  0.8484899999999982  0.2424200029999994  0.1665699930000031   F   F   F
  0.9696999789999978  0.2121199970000021  0.0832799969999982   F   F   F
  0.9703596510616919  0.2132519298670346  0.2502210156744340   T   T   T
  0.9393900040000034  0.2424200029999994  0.1665699930000031   F   F   F
  0.0606099999999969  0.3030300140000008  0.0832799969999982   F   F   F
  0.0631297717609201  0.3063107706492971  0.2463992207813988   T   T   T
  0.0303000010000005  0.3333300050000005  0.1665699930000031   F   F   F
  0.1515100000000018  0.3030300140000008  0.0832799969999982   F   F   F
  0.1532724664050065  0.3065422740925072  0.2460907241442953   T   T   T
  0.1212100010000015  0.3333300050000005  0.1665699930000031   F   F   F
  0.2424200029999994  0.3030300140000008  0.0832799969999982   F   F   F
  0.2431703008129844  0.3063146492237436  0.2463491219135605   T   T   T
  0.2121199970000021  0.3333300050000005  0.1665699930000031   F   F   F
  0.3333300050000005  0.3030300140000008  0.0832799969999982   F   F   F
  0.3332596487149999  0.3050806779582018  0.2475457785522863   T   T   T
  0.3030300140000008  0.3333300050000005  0.1665699930000031   F   F   F
  0.4242399930000005  0.3030300140000008  0.0832799969999982   F   F   F
  0.4238889026079775  0.3036517345738403  0.2505865214058716   T   T   T
  0.3939400020000008  0.3333300050000005  0.1665699930000031   F   F   F
  0.5151500110000029  0.3030300140000008  0.0832799969999982   F   F   F
  0.5153553965955950  0.3030127605748376  0.2473232865534243   T   T   T
  0.4848499889999971  0.3333300050000005  0.1665699930000031   F   F   F
  0.6060600280000017  0.3030300140000008  0.0832799969999982   F   F   F
  0.6060251941620578  0.3030059500663072  0.2477004888044760   T   T   T
  0.5757600069999995  0.3333300050000005  0.1665699930000031   F   F   F
  0.6969699859999992  0.3030300140000008  0.0832799969999982   F   F   F
  0.6969996631165358  0.3030100543300094  0.2477002601753000   T   T   T
  0.6666700239999983  0.3333300050000005  0.1665699930000031   F   F   F
  0.7878800029999979  0.3030300140000008  0.0832799969999982   F   F   F
  0.7877042702623100  0.3030412773904700  0.2473078348679749   T   T   T
  0.7575799820000029  0.3333300050000005  0.1665699930000031   F   F   F
  0.8787900210000004  0.3030300140000008  0.0832799969999982   F   F   F
  0.8797368953736608  0.3035709366210781  0.2505840623392714   T   T   T
  0.8484899999999982  0.3333300050000005  0.1665699930000031   F   F   F
  0.9696999789999978  0.3030300140000008  0.0832799969999982   F   F   F
  0.9717480585393403  0.3049868676073899  0.2475784775396335   T   T   T
  0.9393900040000034  0.3333300050000005  0.1665699930000031   F   F   F
  0.0606099999999969  0.3939400020000008  0.0832799969999982   F   F   F
  0.0639278584516205  0.3971065060589680  0.2459211772478724   T   T   T
  0.0303000010000005  0.4242399930000005  0.1665699930000031   F   F   F
  0.1515100000000018  0.3939400020000008  0.0832799969999982   F   F   F
  0.1539437127454448  0.3974546214964718  0.2461255207837354   T   T   T
  0.1212100010000015  0.4242399930000005  0.1665699930000031   F   F   F
  0.2424200029999994  0.3939400020000008  0.0832799969999982   F   F   F
  0.2435489923277672  0.3974491873464316  0.2461097514616952   T   T   T
  0.2121199970000021  0.4242399930000005  0.1665699930000031   F   F   F
  0.3333300050000005  0.3939400020000008  0.0832799969999982   F   F   F
  0.3331866733473063  0.3971142953916456  0.2459159513532612   T   T   T
  0.3030300140000008  0.4242399930000005  0.1665699930000031   F   F   F
  0.4242399930000005  0.3939400020000008  0.0832799969999982   F   F   F
  0.4233094364255123  0.3965234949452139  0.2463385283441255   T   T   T
  0.3939400020000008  0.4242399930000005  0.1665699930000031   F   F   F
  0.5151500110000029  0.3939400020000008  0.0832799969999982   F   F   F
  0.5148127370413036  0.3947724704894569  0.2492346504738805   T   T   T
  0.4848499889999971  0.4242399930000005  0.1665699930000031   F   F   F
  0.6060600280000017  0.3939400020000008  0.0832799969999982   F   F   F
  0.6061876074580965  0.3938371445980451  0.2474052726071534   T   T   T
  0.5757600069999995  0.4242399930000005  0.1665699930000031   F   F   F
  0.6969699859999992  0.3939400020000008  0.0832799969999982   F   F   F
  0.6970073079849186  0.3939842876314330  0.2477021436369284   T   T   T
  0.6666700239999983  0.4242399930000005  0.1665699930000031   F   F   F
  0.7878800029999979  0.3939400020000008  0.0832799969999982   F   F   F
  0.7876905401448582  0.3938293072733501  0.2474151320366573   T   T   T
  0.7575799820000029  0.4242399930000005  0.1665699930000031   F   F   F
  0.8787900210000004  0.3939400020000008  0.0832799969999982   F   F   F
  0.8799964033826484  0.3947381450863787  0.2493350266295593   T   T   T
  0.8484899999999982  0.4242399930000005  0.1665699930000031   F   F   F
  0.9696999789999978  0.3939400020000008  0.0832799969999982   F   F   F
  0.9731757841903885  0.3964428275564629  0.2463978692380451   T   T   T
  0.9393900040000034  0.4242399930000005  0.1665699930000031   F   F   F
  0.0606099999999969  0.4848499889999971  0.0832799969999982   F   F   F
  0.0641672330748051  0.4872105388967896  0.2461043326785770   T   T   T
  0.0303000010000005  0.5151500110000029  0.1665699930000031   F   F   F
  0.1515100000000018  0.4848499889999971  0.0832799969999982   F   F   F
  0.1539227972546016  0.4872326301471332  0.2463592282910554   T   T   T
  0.1212100010000015  0.5151500110000029  0.1665699930000031   F   F   F
  0.2424200029999994  0.4848499889999971  0.0832799969999982   F   F   F
  0.2437465250991693  0.4874765677125126  0.2464779965884603   T   T   T
  0.2121199970000021  0.5151500110000029  0.1665699930000031   F   F   F
  0.3333300050000005  0.4848499889999971  0.0832799969999982   F   F   F
  0.3333266137030648  0.4872238911536826  0.2463617147269375   T   T   T
  0.3030300140000008  0.5151500110000029  0.1665699930000031   F   F   F
  0.4242399930000005  0.4848499889999971  0.0832799969999982   F   F   F
  0.4230545754184263  0.4872151801745375  0.2461164035102712   T   T   T
  0.3939400020000008  0.5151500110000029  0.1665699930000031   F   F   F
  0.5151500110000029  0.4848499889999971  0.0832799969999982   F   F   F
  0.5133051514680318  0.4867275578134738  0.2460963280590889   T   T   T
  0.4848499889999971  0.5151500110000029  0.1665699930000031   F   F   F
  0.6060600280000017  0.4848499889999971  0.0832799969999982   F   F   F
  0.6052633826791194  0.4852297646861956  0.2493129302841623   T   T   T
  0.5757600069999995  0.5151500110000029  0.1665699930000031   F   F   F
  0.6969699859999992  0.4848499889999971  0.0832799969999982   F   F   F
  0.6969831139757190  0.4846744388376791  0.2473012783534543   T   T   T
  0.6666700239999983  0.5151500110000029  0.1665699930000031   F   F   F
  0.7878800029999979  0.4848499889999971  0.0832799969999982   F   F   F
  0.7876978543560469  0.4846509051141084  0.2473082629638910   T   T   T
  0.7575799820000029  0.5151500110000029  0.1665699930000031   F   F   F
  0.8787900210000004  0.4848499889999971  0.0832799969999982   F   F   F
  0.8799778008566292  0.4851885651519510  0.2492643201499263   T   T   T
  0.8484899999999982  0.5151500110000029  0.1665699930000031   F   F   F
  0.9696999789999978  0.4848499889999971  0.0832799969999982   F   F   F
  0.9734215435867668  0.4866985727195257  0.2460962780193512   T   T   T
  0.9393900040000034  0.5151500110000029  0.1665699930000031   F   F   F
  0.0606099999999969  0.5757600069999995  0.0832799969999982   F   F   F
  0.0641857254961309  0.5769474982170237  0.2461070676939059   T   T   T
  0.0303000010000005  0.6060600280000017  0.1665699930000031   F   F   F
  0.1515100000000018  0.5757600069999995  0.0832799969999982   F   F   F
  0.1541583273019995  0.5770668339385665  0.2464739862982128   T   T   T
  0.1212100010000015  0.6060600280000017  0.1665699930000031   F   F   F
  0.2424200029999994  0.5757600069999995  0.0832799969999982   F   F   F
  0.2437176740075131  0.5770281209483343  0.2466542488840560   T   T   T
  0.2121199970000021  0.6060600280000017  0.1665699930000031   F   F   F
  0.3333300050000005  0.5757600069999995  0.0832799969999982   F   F   F
  0.3333261761644977  0.5770139813168242  0.2466624825749264   T   T   T
  0.3030300140000008  0.6060600280000017  0.1665699930000031   F   F   F
  0.4242399930000005  0.5757600069999995  0.0832799969999982   F   F   F
  0.4229215612498649  0.5770601869628038  0.2464694223328863   T   T   T
  0.3939400020000008  0.6060600280000017  0.1665699930000031   F   F   F
  0.5151500110000029  0.5757600069999995  0.0832799969999982   F   F   F
  0.5127858067026168  0.5769548323245388  0.2461067289749792   T   T   T
  0.4848499889999971  0.6060600280000017  0.1665699930000031   F   F   F
  0.6060600280000017  0.5757600069999995  0.0832799969999982   F   F   F
  0.6035502584589167  0.5767107675093897  0.2463901075169517   T   T   T
  0.5757600069999995  0.6060600280000017  0.1665699930000031   F   F   F
  0.6969699859999992  0.5757600069999995  0.0832799969999982   F   F   F
  0.6964469967132416  0.5761497869295269  0.2505675850141671   T   T   T
  0.6666700239999983  0.6060600280000017  0.1665699930000031   F   F   F
  0.7878800029999979  0.5757600069999995  0.0832799969999982   F   F   F
  0.7875590987305614  0.5750901967211135  0.2470757183262720   T   T   T
  0.7575799820000029  0.6060600280000017  0.1665699930000031   F   F   F
  0.8787900210000004  0.5757600069999995  0.0832799969999982   F   F   F
  0.8797777428076472  0.5761250185771232  0.2505764822829519   T   T   T
  0.8484899999999982  0.6060600280000017  0.1665699930000031   F   F   F
  0.9696999789999978  0.5757600069999995  0.0832799969999982   F   F   F
  0.9732195493189337  0.5767081691461371  0.2463601108563935   T   T   T
  0.9393900040000034  0.6060600280000017  0.1665699930000031   F   F   F
  0.0606099999999969  0.6666700239999983  0.0832799969999982   F   F   F
  0.0639302884729602  0.6668150207708408  0.2459011314986768   T   T   T
  0.0303000010000005  0.6969699859999992  0.1665699930000031   F   F   F
  0.1515100000000018  0.6666700239999983  0.0832799969999982   F   F   F
  0.1539332914357416  0.6666793530262112  0.2463374867848245   T   T   T
  0.1212100010000015  0.6969699859999992  0.1665699930000031   F   F   F
  0.2424200029999994  0.6666700239999983  0.0832799969999982   F   F   F
  0.2437330620877489  0.6666694625494358  0.2466494416407841   T   T   T
  0.2121199970000021  0.6969699859999992  0.1665699930000031   F   F   F
  0.3333300050000005  0.6666700239999983  0.0832799969999982   F   F   F
  0.3333449231386538  0.6666378517990097  0.2467548020209875   T   T   T
  0.3030300140000008  0.6969699859999992  0.1665699930000031   F   F   F
  0.4242399930000005  0.6666700239999983  0.0832799969999982   F   F   F
  0.4229679466105765  0.6666593826125080  0.2466624733078078   T   T   T
  0.3939400020000008  0.6969699859999992  0.1665699930000031   F   F   F
  0.5151500110000029  0.6666700239999983  0.0832799969999982   F   F   F
  0.5127741260852190  0.6666849136337376  0.2463604990342532   T   T   T
  0.4848499889999971  0.6969699859999992  0.1665699930000031   F   F   F
  0.6060600280000017  0.6666700239999983  0.0832799969999982   F   F   F
  0.6029042442435468  0.6668063088680327  0.2459222876587717   T   T   T
  0.5757600069999995  0.6969699859999992  0.1665699930000031   F   F   F
  0.6969699859999992  0.6666700239999983  0.0832799969999982   F   F   F
  0.6949868952419536  0.6667189908058262  0.2475860796541625   T   T   T
  0.6666700239999983  0.6969699859999992  0.1665699930000031   F   F   F
  0.7878800029999979  0.6666700239999983  0.0832799969999982   F   F   F
  0.7879804969026480  0.6664200977812200  0.2474122827219176   T   T   T
  0.7575799820000029  0.6969699859999992  0.1665699930000031   F   F   F
  0.8787900210000004  0.6666700239999983  0.0832799969999982   F   F   F
  0.8785164782593213  0.6663917643588917  0.2475167373511553   T   T   T
  0.8484899999999982  0.6969699859999992  0.1665699930000031   F   F   F
  0.9696999789999978  0.6666700239999983  0.0832799969999982   F   F   F
  0.9717992860617528  0.6667383172411476  0.2475684004191834   T   T   T
  0.9393900040000034  0.6969699859999992  0.1665699930000031   F   F   F
  0.0606099999999969  0.7575799820000029  0.0832799969999982   F   F   F
  0.0631464381265587  0.7568341824698877  0.2463834799099160   T   T   T
  0.0303000010000005  0.7878800029999979  0.1665699930000031   F   F   F
  0.1515100000000018  0.7575799820000029  0.0832799969999982   F   F   F
  0.1539108087503607  0.7564585227416956  0.2461159148511385   T   T   T
  0.1212100010000015  0.7878800029999979  0.1665699930000031   F   F   F
  0.2424200029999994  0.7575799820000029  0.0832799969999982   F   F   F
  0.2437442776443888  0.7562445459485403  0.2464743536372325   T   T   T
  0.2121199970000021  0.7878800029999979  0.1665699930000031   F   F   F
  0.3333300050000005  0.7575799820000029  0.0832799969999982   F   F   F
  0.3333379412925268  0.7562541303071413  0.2466450927189925   T   T   T
  0.3030300140000008  0.7878800029999979  0.1665699930000031   F   F   F
  0.4242399930000005  0.7575799820000029  0.0832799969999982   F   F   F
  0.4229676171273198  0.7562750639692837  0.2466538359997656   T   T   T
  0.3939400020000008  0.7878800029999979  0.1665699930000031   F   F   F
  0.5151500110000029  0.7575799820000029  0.0832799969999982   F   F   F
  0.5125120888519845  0.7562511297365262  0.2464729470550964   T   T   T
  0.4848499889999971  0.7878800029999979  0.1665699930000031   F   F   F
  0.6060600280000017  0.7575799820000029  0.0832799969999982   F   F   F
  0.6025425894750924  0.7564522118436017  0.2461172420777373   T   T   T
  0.5757600069999995  0.7878800029999979  0.1665699930000031   F   F   F
  0.6969699859999992  0.7575799820000029  0.0832799969999982   F   F   F
  0.6936557970517327  0.7567765946782856  0.2463747476056710   T   T   T
  0.6666700239999983  0.7878800029999979  0.1665699930000031   F   F   F
  0.7878800029999979  0.7575799820000029  0.0832799969999982   F   F   F
  0.7867397908470153  0.7570961289288434  0.2501799335268515   T   T   T
  0.7575799820000029  0.7878800029999979  0.1665699930000031   F   F   F
  0.8787900210000004  0.7575799820000029  0.0832799969999982   F   F   F
  0.8786512143007243  0.7572943347387664  0.2469612882281211   T   T   T
  0.8484899999999982  0.7878800029999979  0.1665699930000031   F   F   F
  0.9696999789999978  0.7575799820000029  0.0832799969999982   F   F   F
  0.9704377468467058  0.7571691217947958  0.2501594736442101   T   T   T
  0.9393900040000034  0.7878800029999979  0.1665699930000031   F   F   F
  0.0606099999999969  0.8484899999999982  0.0832799969999982   F   F   F
  0.0616575862476125  0.8478890557977010  0.2489019498175224   T   T   T
  0.0303000010000005  0.8787900210000004  0.1665699930000031   F   F   F
  0.1515100000000018  0.8484899999999982  0.0832799969999982   F   F   F
  0.1532781815706628  0.8467433775434685  0.2461010793972420   T   T   T
  0.1212100010000015  0.8787900210000004  0.1665699930000031   F   F   F
  0.2424200029999994  0.8484899999999982  0.0832799969999982   F   F   F
  0.2435253135434721  0.8460615670454459  0.2461191898453805   T   T   T
  0.2121199970000021  0.8787900210000004  0.1665699930000031   F   F   F
  0.3333300050000005  0.8484899999999982  0.0832799969999982   F   F   F
  0.3333100493994081  0.8460513453069822  0.2463382830157101   T   T   T
  0.3030300140000008  0.8787900210000004  0.1665699930000031   F   F   F
  0.4242399930000005  0.8484899999999982  0.0832799969999982   F   F   F
  0.4229404582476448  0.8458481193011167  0.2464819192799013   T   T   T
  0.3939400020000008  0.8787900210000004  0.1665699930000031   F   F   F
  0.5151500110000029  0.8484899999999982  0.0832799969999982   F   F   F
  0.5127660090480575  0.8460638139932115  0.2463604558496257   T   T   T
  0.4848499889999971  0.8787900210000004  0.1665699930000031   F   F   F
  0.6060600280000017  0.8484899999999982  0.0832799969999982   F   F   F
  0.6025438447638223  0.8460721428667810  0.2461225593690273   T   T   T
  0.5757600069999995  0.8787900210000004  0.1665699930000031   F   F   F
  0.6969699859999992  0.8484899999999982  0.0832799969999982   F   F   F
  0.6934400291780278  0.8467142946311412  0.2460934398673871   T   T   T
  0.6666700239999983  0.8787900210000004  0.1665699930000031   F   F   F
  0.7878800029999979  0.8484899999999982  0.0832799969999982   F   F   F
  0.7861863452292113  0.8478104871363428  0.2488687660674245   T   T   T
  0.7575799820000029  0.8787900210000004  0.1665699930000031   F   F   F
  0.8787900210000004  0.8484899999999982  0.0832799969999982   F   F   F
  0.8788134785113826  0.8483147701171987  0.2471921745469530   T   T   T
  0.8484899999999982  0.8787900210000004  0.1665699930000031   F   F   F
  0.9696999789999978  0.8484899999999982  0.0832799969999982   F   F   F
  0.9695294916548889  0.8483184844606413  0.2471876956124603   T   T   T
  0.9393900040000034  0.8787900210000004  0.1665699930000031   F   F   F
  0.0606099999999969  0.9393900040000034  0.0832799969999982   F   F   F
  0.0607503865413577  0.9393039894152153  0.2472625766726395   T   T   T
  0.0303000010000005  0.9696999789999978  0.1665699930000031   F   F   F
  0.1515100000000018  0.9393900040000034  0.0832799969999982   F   F   F
  0.1521807940720876  0.9384019104591630  0.2489495856984618   T   T   T
  0.1212100010000015  0.9696999789999978  0.1665699930000031   F   F   F
  0.2424200029999994  0.9393900040000034  0.0832799969999982   F   F   F
  0.2432056874403443  0.9369052469137600  0.2464206534767044   T   T   T
  0.2121199970000021  0.9696999789999978  0.1665699930000031   F   F   F
  0.3333300050000005  0.9393900040000034  0.0832799969999982   F   F   F
  0.3331803738873944  0.9360769559121707  0.2459175199469428   T   T   T
  0.3030300140000008  0.9696999789999978  0.1665699930000031   F   F   F
  0.4242399930000005  0.9393900040000034  0.0832799969999982   F   F   F
  0.4230435269441628  0.9358196536734908  0.2461053863139568   T   T   T
  0.3939400020000008  0.9696999789999978  0.1665699930000031   F   F   F
  0.5151500110000029  0.9393900040000034  0.0832799969999982   F   F   F
  0.5127839888242605  0.9358171193190969  0.2461060565668944   T   T   T
  0.4848499889999971  0.9696999789999978  0.1665699930000031   F   F   F
  0.6060600280000017  0.9393900040000034  0.0832799969999982   F   F   F
  0.6028860834653642  0.9360589952037159  0.2459037387268310   T   T   T
  0.5757600069999995  0.9696999789999978  0.1665699930000031   F   F   F
  0.6969699859999992  0.9393900040000034  0.0832799969999982   F   F   F
  0.6936785751416679  0.9368313475277645  0.2463404673824741   T   T   T
  0.6666700239999983  0.9696999789999978  0.1665699930000031   F   F   F
  0.7878800029999979  0.9393900040000034  0.0832799969999982   F   F   F
  0.7862163140890885  0.9383381127928274  0.2488516486609029   T   T   T
  0.7575799820000029  0.9696999789999978  0.1665699930000031   F   F   F
  0.8787900210000004  0.9393900040000034  0.0832799969999982   F   F   F
  0.8785626903488648  0.9392491218090555  0.2473416279134710   T   T   T
  0.8484899999999982  0.9696999789999978  0.1665699930000031   F   F   F
  0.9696999789999978  0.9393900040000034  0.0832799969999982   F   F   F
  0.9696366269027195  0.9392499159866645  0.2476013815846159   T   T   T
  0.9393900040000034  0.9696999789999978  0.1665699930000031   F   F   F
  0.0275731192301549  0.0549354554296073  0.3912995344803036   T   T   T
  0.1106968313430770  0.0552368952475675  0.3893709420713165   T   T   T
  0.1936666089464296  0.0563934516245297  0.3796915291846332   T   T   T
  0.2772193835665320  0.0610242502122063  0.3596210018701385   T   T   T
  0.3623561841594736  0.0666189549648877  0.3399895080804285   T   T   T
  0.4490169766077869  0.0698901930197735  0.3277671123383925   T   T   T
  0.5352810531289833  0.0704716551764477  0.3262948664621277   T   T   T
  0.6210205495302361  0.0699953754275811  0.3274540710041123   T   T   T
  0.7047957817217565  0.0671009648667464  0.3382200890397442   T   T   T
  0.7844239097209851  0.0615464697702635  0.3581581467137056   T   T   T
  0.8630942737896419  0.0566093072997589  0.3788927518757887   T   T   T
  0.9447903084221565  0.0553220982616338  0.3891241217228369   T   T   T
  0.0258257385855671  0.1349968970175155  0.3733562159379673   T   T   T
  0.1093607488117456  0.1348919440212342  0.3731618684969860   T   T   T
  0.1936757156743099  0.1369203436841531  0.3789778958402508   T   T   T
  0.2776506181526983  0.1386288512365823  0.3831399837994880   T   T   T
  0.3614908170876419  0.1407247555851683  0.3769692938236133   T   T   T
  0.4465725713763149  0.1452267258977571  0.3639903184484581   T   T   T
  0.5318482740933206  0.1479046852306425  0.3570485255165181   T   T   T
  0.6162361317273479  0.1479742800023516  0.3568591552776113   T   T   T
  0.6989912395898301  0.1455067875207234  0.3632368189971160   T   T   T
  0.7797124879868846  0.1411099043905821  0.3758872628095133   T   T   T
  0.8613342649661178  0.1388510654140092  0.3830836696832094   T   T   T
  0.9435864460178607  0.1371071381345956  0.3793741589370185   T   T   T
  0.0202688253609367  0.2111911230785708  0.3442463488054628   T   T   T
  0.1050767465508144  0.2099786646565818  0.3401133016314830   T   T   T
  0.1910207894696967  0.2110190563290573  0.3437891343962320   T   T   T
  0.2772292840189223  0.2154550050412354  0.3578156068024256   T   T   T
  0.3615117038957081  0.2201869833017085  0.3755519387033246   T   T   T
  0.4451007214424365  0.2223981610179280  0.3856924830953332   T   T   T
  0.5288121654080484  0.2237922494944087  0.3857304487595385   T   T   T
  0.6123479227666806  0.2245498637970726  0.3843612079577738   T   T   T
  0.6951759385942609  0.2238724857186440  0.3855720006506402   T   T   T
  0.7775517779955550  0.2225563559437518  0.3857104743428650   T   T   T
  0.8591529837710752  0.2205488265648796  0.3765692988016553   T   T   T
  0.9388144289505647  0.2159337992356924  0.3590765157273808   T   T   T
  0.0169046839477858  0.2932014697758376  0.3263787238996940   T   T   T
  0.1030580628498470  0.2926954031402005  0.3245550674825068   T   T   T
  0.1897523515272184  0.2926631590474429  0.3245235268438549   T   T   T
  0.2763995277520692  0.2930907538456964  0.3261239976533759   T   T   T
  0.3623950123214996  0.2950688231246446  0.3376944948572742   T   T   T
  0.4466262035888562  0.3009085790453767  0.3629144283197050   T   T   T
  0.5288034300896669  0.3047716248301313  0.3853940601026906   T   T   T