Pb Te
 1.0000000000000000
    26.1999999999999993    0.0000000000000000    0.0000000000000000
     0.0000000000000000   26.1999999999999993    0.0000000000000000
     0.0000000000000000    0.0000000000000000   26.1999999999999993
 Pb  Te 
 256 256
Direct
  0.0000000000000000  0.0000000000000000  0.0000000000000000
  0.2500000000000000  0.5000000000000000  0.7500000000000000
  0.7500000000000000  0.1250000000000000  0.6250000000000000
  0.3750000000000000  0.6250000000000000  0.5000000000000000
  0.3750000000000000  0.5000000000000000  0.6250000000000000
  0.8749999999999999  0.0000000000000000  0.6250000000000000
  0.2500000000000000  0.6250000000000000  0.6250000000000000
  0.2500000000000000  0.6250000000000000  0.8749999999999999
  0.2500000000000000  0.5000000000000000  0.5000000000000000
  0.3750000000000000  0.6250000000000000  0.2500000000000000
  0.3750000000000000  0.5000000000000000  0.3750000000000000
  0.7500000000000000  0.0000000000000000  0.7500000000000000
  0.2500000000000000  0.6250000000000000  0.3750000000000000
  0.2500000000000000  0.5000000000000000  0.2500000000000000
  0.7500000000000000  0.1250000000000000  0.8749999999999999
  0.8749999999999999  0.1250000000000000  0.5000000000000000
  0.3750000000000000  0.6250000000000000  0.0000000000000000
  0.7500000000000000  0.0000000000000000  0.5000000000000000
  0.3750000000000000  0.6250000000000000  0.7500000000000000
  0.2500000000000000  0.7500000000000000  0.5000000000000000
  0.8749999999999999  0.1250000000000000  0.0000000000000000
  0.3750000000000000  0.8749999999999999  0.2500000000000000
  0.3750000000000000  0.7500000000000000  0.3750000000000000
  0.7500000000000000  0.0000000000000000  0.2500000000000000
  0.2500000000000000  0.8749999999999999  0.3750000000000000
  0.3750000000000000  0.5000000000000000  0.8749999999999999
  0.2500000000000000  0.7500000000000000  0.2500000000000000
  0.3750000000000000  0.8749999999999999  0.0000000000000000
  0.3750000000000000  0.7500000000000000  0.1250000000000000
  0.8749999999999999  0.0000000000000000  0.3750000000000000
  0.2500000000000000  0.8749999999999999  0.1250000000000000
  0.2500000000000000  0.7500000000000000  0.0000000000000000
  0.8749999999999999  0.1250000000000000  0.2500000000000000
  0.7500000000000000  0.1250000000000000  0.3750000000000000
  0.3750000000000000  0.5000000000000000  0.1250000000000000
  0.8749999999999999  0.0000000000000000  0.8749999999999999
  0.2500000000000000  0.6250000000000000  0.1250000000000000
  0.3750000000000000  0.3750000000000000  0.0000000000000000
  0.3750000000000000  0.2500000000000000  0.1250000000000000
  0.8749999999999999  0.2500000000000000  0.3750000000000000
  0.2500000000000000  0.3750000000000000  0.1250000000000000
  0.2500000000000000  0.2500000000000000  0.0000000000000000
  0.8749999999999999  0.3750000000000000  0.2500000000000000
  0.7500000000000000  0.3750000000000000  0.3750000000000000
  0.3750000000000000  0.1250000000000000  0.7500000000000000
  0.7500000000000000  0.2500000000000000  0.5000000000000000
  0.2500000000000000  0.1250000000000000  0.8749999999999999
  0.2500000000000000  0.0000000000000000  0.7500000000000000
  0.7500000000000000  0.3750000000000000  0.6250000000000000
  0.3750000000000000  0.1250000000000000  0.5000000000000000
  0.3750000000000000  0.0000000000000000  0.6250000000000000
  0.3750000000000000  0.0000000000000000  0.8749999999999999
  0.2500000000000000  0.2500000000000000  0.2500000000000000
  0.7500000000000000  0.2500000000000000  0.2500000000000000
  0.3750000000000000  0.2500000000000000  0.3750000000000000
  0.2500000000000000  0.5000000000000000  0.0000000000000000
  0.8749999999999999  0.1250000000000000  0.7500000000000000
  0.3750000000000000  0.3750000000000000  0.7500000000000000
  0.3750000000000000  0.2500000000000000  0.8749999999999999
  0.7500000000000000  0.2500000000000000  0.0000000000000000
  0.2500000000000000  0.3750000000000000  0.8749999999999999
  0.2500000000000000  0.2500000000000000  0.7500000000000000
  0.7500000000000000  0.3750000000000000  0.1250000000000000
  0.3750000000000000  0.3750000000000000  0.5000000000000000
  0.3750000000000000  0.2500000000000000  0.6250000000000000
  0.8749999999999999  0.2500000000000000  0.1250000000000000
  0.2500000000000000  0.3750000000000000  0.6250000000000000
  0.2500000000000000  0.2500000000000000  0.5000000000000000
  0.8749999999999999  0.3750000000000000  0.0000000000000000
  0.3750000000000000  0.3750000000000000  0.2500000000000000
  0.2500000000000000  0.8749999999999999  0.6250000000000000
  0.8749999999999999  0.0000000000000000  0.1250000000000000
  0.3750000000000000  0.7500000000000000  0.6250000000000000
  0.3750000000000000  0.8749999999999999  0.5000000000000000
  0.5000000000000000  0.8749999999999999  0.1250000000000000
  0.5000000000000000  0.2500000000000000  0.7500000000000000
  0.6250000000000000  0.3750000000000000  0.5000000000000000
  0.6250000000000000  0.7500000000000000  0.1250000000000000
  0.6250000000000000  0.2500000000000000  0.6250000000000000
  0.5000000000000000  0.3750000000000000  0.6250000000000000
  0.5000000000000000  0.3750000000000000  0.8749999999999999
  0.6250000000000000  0.8749999999999999  0.0000000000000000
  0.6250000000000000  0.3750000000000000  0.2500000000000000
  0.5000000000000000  0.7500000000000000  0.2500000000000000
  0.6250000000000000  0.2500000000000000  0.3750000000000000
  0.5000000000000000  0.3750000000000000  0.3750000000000000
  0.5000000000000000  0.8749999999999999  0.3750000000000000
  0.5000000000000000  0.2500000000000000  0.2500000000000000
  0.5000000000000000  0.2500000000000000  0.5000000000000000
  0.6250000000000000  0.2500000000000000  0.8749999999999999
  0.5000000000000000  0.7500000000000000  0.0000000000000000
  0.6250000000000000  0.3750000000000000  0.7500000000000000
  0.5000000000000000  0.6250000000000000  0.6250000000000000
  0.6250000000000000  0.6250000000000000  0.5000000000000000
  0.5000000000000000  0.5000000000000000  0.5000000000000000
  0.6250000000000000  0.6250000000000000  0.2500000000000000
  0.5000000000000000  0.5000000000000000  0.7500000000000000
  0.6250000000000000  0.5000000000000000  0.3750000000000000
  0.5000000000000000  0.6250000000000000  0.3750000000000000
  0.5000000000000000  0.6250000000000000  0.8749999999999999
  0.5000000000000000  0.5000000000000000  0.2500000000000000
  0.6250000000000000  0.6250000000000000  0.0000000000000000
  0.6250000000000000  0.5000000000000000  0.8749999999999999
  0.6250000000000000  0.5000000000000000  0.1250000000000000
  0.5000000000000000  0.6250000000000000  0.1250000000000000
  0.6250000000000000  0.6250000000000000  0.7500000000000000
  0.5000000000000000  0.5000000000000000  0.0000000000000000
  0.6250000000000000  0.3750000000000000  0.0000000000000000
  0.8749999999999999  0.2500000000000000  0.6250000000000000
  0.6250000000000000  0.7500000000000000  0.3750000000000000
  0.5000000000000000  0.3750000000000000  0.1250000000000000
  0.5000000000000000  0.0000000000000000  0.2500000000000000
  0.6250000000000000  0.1250000000000000  0.0000000000000000
  0.6250000000000000  0.7500000000000000  0.8749999999999999
  0.6250000000000000  0.0000000000000000  0.1250000000000000
  0.5000000000000000  0.1250000000000000  0.1250000000000000
  0.6250000000000000  0.8749999999999999  0.7500000000000000
  0.5000000000000000  0.8749999999999999  0.8749999999999999
  0.5000000000000000  0.0000000000000000  0.0000000000000000
  0.3750000000000000  0.8749999999999999  0.7500000000000000
  0.3750000000000000  0.7500000000000000  0.8749999999999999
  0.7500000000000000  0.0000000000000000  0.0000000000000000
  0.2500000000000000  0.8749999999999999  0.8749999999999999
  0.2500000000000000  0.7500000000000000  0.7500000000000000
  0.7500000000000000  0.1250000000000000  0.1250000000000000
  0.8749999999999999  0.8749999999999999  0.7500000000000000
  0.5000000000000000  0.1250000000000000  0.3750000000000000
  0.6250000000000000  0.0000000000000000  0.3750000000000000
  0.5000000000000000  0.7500000000000000  0.7500000000000000
  0.6250000000000000  0.8749999999999999  0.2500000000000000
  0.5000000000000000  0.2500000000000000  0.0000000000000000
  0.6250000000000000  0.1250000000000000  0.7500000000000000
  0.5000000000000000  0.7500000000000000  0.5000000000000000
  0.6250000000000000  0.0000000000000000  0.8749999999999999
  0.5000000000000000  0.1250000000000000  0.8749999999999999
  0.5000000000000000  0.8749999999999999  0.6250000000000000
  0.5000000000000000  0.0000000000000000  0.7500000000000000
  0.6250000000000000  0.1250000000000000  0.5000000000000000
  0.6250000000000000  0.7500000000000000  0.6250000000000000
  0.6250000000000000  0.0000000000000000  0.6250000000000000
  0.5000000000000000  0.1250000000000000  0.6250000000000000
  0.6250000000000000  0.8749999999999999  0.5000000000000000
  0.5000000000000000  0.0000000000000000  0.5000000000000000
  0.6250000000000000  0.1250000000000000  0.2500000000000000
  0.6250000000000000  0.2500000000000000  0.1250000000000000
  0.2500000000000000  0.1250000000000000  0.6250000000000000
  0.2500000000000000  0.3750000000000000  0.3750000000000000
  0.2500000000000000  0.0000000000000000  0.5000000000000000
  0.0000000000000000  0.3750000000000000  0.6250000000000000
  0.8749999999999999  0.7500000000000000  0.1250000000000000
  0.1250000000000000  0.2500000000000000  0.6250000000000000
  0.1250000000000000  0.3750000000000000  0.5000000000000000
  0.7500000000000000  0.8749999999999999  0.1250000000000000
  0.0000000000000000  0.2500000000000000  0.7500000000000000
  0.0000000000000000  0.3750000000000000  0.8749999999999999
  0.7500000000000000  0.7500000000000000  0.0000000000000000
  0.1250000000000000  0.2500000000000000  0.8749999999999999
  0.1250000000000000  0.3750000000000000  0.7500000000000000
  0.8749999999999999  0.6250000000000000  0.7500000000000000
  0.0000000000000000  0.5000000000000000  0.0000000000000000
  0.0000000000000000  0.6250000000000000  0.1250000000000000
  0.8749999999999999  0.5000000000000000  0.8749999999999999
  0.1250000000000000  0.5000000000000000  0.1250000000000000
  0.1250000000000000  0.6250000000000000  0.0000000000000000
  0.7500000000000000  0.6250000000000000  0.8749999999999999
  0.0000000000000000  0.6250000000000000  0.8749999999999999
  0.0000000000000000  0.5000000000000000  0.7500000000000000
  0.7500000000000000  0.6250000000000000  0.6250000000000000
  0.1250000000000000  0.6250000000000000  0.5000000000000000
  0.1250000000000000  0.5000000000000000  0.6250000000000000
  0.8749999999999999  0.5000000000000000  0.6250000000000000
  0.0000000000000000  0.2500000000000000  0.5000000000000000
  0.0000000000000000  0.6250000000000000  0.6250000000000000
  0.8749999999999999  0.6250000000000000  0.5000000000000000
  0.1250000000000000  0.6250000000000000  0.2500000000000000
  0.1250000000000000  0.5000000000000000  0.3750000000000000
  0.7500000000000000  0.5000000000000000  0.7500000000000000
  0.0000000000000000  0.6250000000000000  0.3750000000000000
  0.0000000000000000  0.5000000000000000  0.2500000000000000
  0.0000000000000000  0.5000000000000000  0.5000000000000000
  0.8749999999999999  0.8749999999999999  0.0000000000000000
  0.1250000000000000  0.3750000000000000  0.2500000000000000
  0.1250000000000000  0.2500000000000000  0.3750000000000000
  0.8749999999999999  0.7500000000000000  0.6250000000000000
  0.0000000000000000  0.1250000000000000  0.6250000000000000
  0.0000000000000000  0.0000000000000000  0.5000000000000000
  0.8749999999999999  0.8749999999999999  0.5000000000000000
  0.1250000000000000  0.1250000000000000  0.2500000000000000
  0.1250000000000000  0.0000000000000000  0.3750000000000000
  0.1250000000000000  0.0000000000000000  0.6250000000000000
  0.7500000000000000  0.7500000000000000  0.7500000000000000
  0.0000000000000000  0.0000000000000000  0.2500000000000000
  0.7500000000000000  0.8749999999999999  0.8749999999999999
  0.1250000000000000  0.1250000000000000  0.0000000000000000
  0.1250000000000000  0.0000000000000000  0.1250000000000000
  0.8749999999999999  0.7500000000000000  0.8749999999999999
  0.0000000000000000  0.1250000000000000  0.1250000000000000
  0.0000000000000000  0.1250000000000000  0.3750000000000000
  0.7500000000000000  0.5000000000000000  0.5000000000000000
  0.1250000000000000  0.1250000000000000  0.5000000000000000
  0.0000000000000000  0.0000000000000000  0.7500000000000000
  0.7500000000000000  0.7500000000000000  0.2500000000000000
  0.0000000000000000  0.3750000000000000  0.3750000000000000
  0.0000000000000000  0.2500000000000000  0.2500000000000000
  0.7500000000000000  0.8749999999999999  0.3750000000000000
  0.1250000000000000  0.3750000000000000  0.0000000000000000
  0.1250000000000000  0.2500000000000000  0.1250000000000000
  0.7500000000000000  0.8749999999999999  0.6250000000000000
  0.8749999999999999  0.7500000000000000  0.3750000000000000
  0.0000000000000000  0.2500000000000000  0.0000000000000000
  0.8749999999999999  0.8749999999999999  0.2500000000000000
  0.1250000000000000  0.1250000000000000  0.7500000000000000
  0.1250000000000000  0.0000000000000000  0.8749999999999999
  0.7500000000000000  0.7500000000000000  0.5000000000000000
  0.0000000000000000  0.1250000000000000  0.8749999999999999
  0.0000000000000000  0.3750000000000000  0.1250000000000000
  0.1250000000000000  0.5000000000000000  0.8749999999999999
  0.6250000000000000  0.5000000000000000  0.6250000000000000
  0.0000000000000000  0.7500000000000000  0.2500000000000000
  0.8749999999999999  0.5000000000000000  0.1250000000000000
  0.7500000000000000  0.6250000000000000  0.1250000000000000
  0.1250000000000000  0.8749999999999999  0.5000000000000000
  0.2500000000000000  0.0000000000000000  0.2500000000000000
  0.0000000000000000  0.8749999999999999  0.3750000000000000
  0.7500000000000000  0.3750000000000000  0.8749999999999999
  0.7500000000000000  0.5000000000000000  0.2500000000000000
  0.1250000000000000  0.7500000000000000  0.3750000000000000
  0.7500000000000000  0.6250000000000000  0.3750000000000000
  0.3750000000000000  0.1250000000000000  0.0000000000000000
  0.2500000000000000  0.0000000000000000  0.0000000000000000
  0.1250000000000000  0.8749999999999999  0.2500000000000000
  0.1250000000000000  0.7500000000000000  0.6250000000000000
  0.8749999999999999  0.6250000000000000  0.0000000000000000
  0.0000000000000000  0.7500000000000000  0.5000000000000000
  0.3750000000000000  0.0000000000000000  0.1250000000000000
  0.8749999999999999  0.2500000000000000  0.8749999999999999
  0.2500000000000000  0.1250000000000000  0.1250000000000000
  0.1250000000000000  0.7500000000000000  0.8749999999999999
  0.1250000000000000  0.8749999999999999  0.0000000000000000
  0.0000000000000000  0.8749999999999999  0.6250000000000000
  0.7500000000000000  0.2500000000000000  0.7500000000000000
  0.1250000000000000  0.6250000000000000  0.7500000000000000
  0.8749999999999999  0.6250000000000000  0.2500000000000000
  0.7500000000000000  0.5000000000000000  0.0000000000000000
  0.8749999999999999  0.3750000000000000  0.5000000000000000
  0.0000000000000000  0.7500000000000000  0.0000000000000000
  0.3750000000000000  0.1250000000000000  0.2500000000000000
  0.1250000000000000  0.8749999999999999  0.7500000000000000
  0.2500000000000000  0.1250000000000000  0.3750000000000000
  0.0000000000000000  0.8749999999999999  0.8749999999999999
  0.0000000000000000  0.8749999999999999  0.1250000000000000
  0.8749999999999999  0.5000000000000000  0.3750000000000000
  0.3750000000000000  0.0000000000000000  0.3750000000000000
  0.1250000000000000  0.7500000000000000  0.1250000000000000
  0.0000000000000000  0.7500000000000000  0.7500000000000000
  0.8749999999999999  0.3750000000000000  0.7500000000000000
  0.7500000000000000  0.8749999999999999  0.2500000000000000
  0.8749999999999999  0.2500000000000000  0.2500000000000000
  0.7500000000000000  0.7500000000000000  0.3750000000000000
  0.7500000000000000  0.3750000000000000  0.0000000000000000
  0.5000000000000000  0.8749999999999999  0.0000000000000000
  0.7500000000000000  0.2500000000000000  0.8749999999999999
  0.7500000000000000  0.3750000000000000  0.7500000000000000
  0.6250000000000000  0.7500000000000000  0.2500000000000000
  0.5000000000000000  0.5000000000000000  0.6250000000000000
  0.6250000000000000  0.8749999999999999  0.3750000000000000
  0.7500000000000000  0.6250000000000000  0.2500000000000000
  0.6250000000000000  0.7500000000000000  0.0000000000000000
  0.5000000000000000  0.7500000000000000  0.1250000000000000
  0.7500000000000000  0.7500000000000000  0.8749999999999999
  0.8749999999999999  0.3750000000000000  0.6250000000000000
  0.5000000000000000  0.6250000000000000  0.5000000000000000
  0.8749999999999999  0.8749999999999999  0.8749999999999999
  0.7500000000000000  0.3750000000000000  0.5000000000000000
  0.6250000000000000  0.5000000000000000  0.7500000000000000
  0.8749999999999999  0.2500000000000000  0.5000000000000000
  0.8749999999999999  0.7500000000000000  0.7500000000000000
  0.6250000000000000  0.6250000000000000  0.8749999999999999
  0.8749999999999999  0.7500000000000000  0.5000000000000000
  0.8749999999999999  0.2500000000000000  0.7500000000000000
  0.7500000000000000  0.8749999999999999  0.5000000000000000
  0.7500000000000000  0.3750000000000000  0.2500000000000000
  0.5000000000000000  0.6250000000000000  0.7500000000000000
  0.7500000000000000  0.7500000000000000  0.6250000000000000
  0.7500000000000000  0.2500000000000000  0.3750000000000000
  0.8749999999999999  0.3750000000000000  0.8749999999999999
  0.8749999999999999  0.8749999999999999  0.6250000000000000
  0.6250000000000000  0.8749999999999999  0.1250000000000000
  0.8749999999999999  0.3750000000000000  0.3750000000000000
  0.5000000000000000  0.5000000000000000  0.8749999999999999
  0.5000000000000000  0.7500000000000000  0.3750000000000000
  0.6250000000000000  0.8749999999999999  0.6250000000000000
  0.5000000000000000  0.8749999999999999  0.2500000000000000
  0.8749999999999999  0.0000000000000000  0.0000000000000000
  0.8749999999999999  0.6250000000000000  0.8749999999999999
  0.8749999999999999  0.5000000000000000  0.2500000000000000
  0.8749999999999999  0.1250000000000000  0.1250000000000000
  0.8749999999999999  0.0000000000000000  0.7500000000000000
  0.7500000000000000  0.2500000000000000  0.6250000000000000
  0.7500000000000000  0.0000000000000000  0.1250000000000000
  0.7500000000000000  0.6250000000000000  0.5000000000000000
  0.7500000000000000  0.1250000000000000  0.0000000000000000
  0.7500000000000000  0.1250000000000000  0.5000000000000000
  0.8749999999999999  0.6250000000000000  0.3750000000000000
  0.8749999999999999  0.0000000000000000  0.2500000000000000
  0.7500000000000000  0.5000000000000000  0.6250000000000000
  0.7500000000000000  0.0000000000000000  0.6250000000000000
  0.8749999999999999  0.1250000000000000  0.3750000000000000
  0.8749999999999999  0.6250000000000000  0.6250000000000000
  0.7500000000000000  0.5000000000000000  0.3750000000000000
  0.7500000000000000  0.0000000000000000  0.3750000000000000
  0.8749999999999999  0.1250000000000000  0.6250000000000000
  0.8749999999999999  0.5000000000000000  0.5000000000000000
  0.7500000000000000  0.1250000000000000  0.2500000000000000
  0.8749999999999999  0.1250000000000000  0.8749999999999999
  0.8749999999999999  0.8749999999999999  0.3750000000000000
  0.5000000000000000  0.8749999999999999  0.7500000000000000
  0.7500000000000000  0.6250000000000000  0.0000000000000000
  0.7500000000000000  0.2500000000000000  0.1250000000000000
  0.8749999999999999  0.7500000000000000  0.2500000000000000
  0.6250000000000000  0.7500000000000000  0.5000000000000000
  0.8749999999999999  0.5000000000000000  0.0000000000000000
  0.7500000000000000  0.8749999999999999  0.0000000000000000
  0.8749999999999999  0.0000000000000000  0.5000000000000000
  0.8749999999999999  0.3750000000000000  0.1250000000000000
  0.5000000000000000  0.7500000000000000  0.6250000000000000
  0.7500000000000000  0.7500000000000000  0.1250000000000000
  0.8749999999999999  0.6250000000000000  0.1250000000000000
  0.8749999999999999  0.2500000000000000  0.0000000000000000
  0.5000000000000000  0.8749999999999999  0.5000000000000000
  0.8749999999999999  0.8749999999999999  0.1250000000000000
  0.6250000000000000  0.7500000000000000  0.7500000000000000
  0.7500000000000000  0.1250000000000000  0.7500000000000000
  0.8749999999999999  0.7500000000000000  0.0000000000000000
  0.6250000000000000  0.8749999999999999  0.8749999999999999
  0.7500000000000000  0.5000000000000000  0.1250000000000000
  0.5000000000000000  0.7500000000000000  0.8749999999999999
  0.7500000000000000  0.6250000000000000  0.7500000000000000
  0.7500000000000000  0.0000000000000000  0.8749999999999999
  0.7500000000000000  0.5000000000000000  0.8749999999999999
  0.8749999999999999  0.5000000000000000  0.7500000000000000
  0.2500000000000000  0.8749999999999999  0.7500000000000000
  0.6250000000000000  0.5000000000000000  0.5000000000000000
  0.0000000000000000  0.8749999999999999  0.5000000000000000
  0.0000000000000000  0.7500000000000000  0.6250000000000000
  0.1250000000000000  0.8749999999999999  0.6250000000000000
  0.1250000000000000  0.7500000000000000  0.5000000000000000
  0.0000000000000000  0.8749999999999999  0.2500000000000000
  0.0000000000000000  0.7500000000000000  0.3750000000000000
  0.1250000000000000  0.8749999999999999  0.3750000000000000
  0.1250000000000000  0.7500000000000000  0.2500000000000000
  0.0000000000000000  0.8749999999999999  0.0000000000000000
  0.0000000000000000  0.7500000000000000  0.1250000000000000
  0.1250000000000000  0.8749999999999999  0.1250000000000000
  0.1250000000000000  0.7500000000000000  0.0000000000000000
  0.0000000000000000  0.6250000000000000  0.7500000000000000
  0.0000000000000000  0.5000000000000000  0.8749999999999999
  0.1250000000000000  0.6250000000000000  0.8749999999999999
  0.1250000000000000  0.5000000000000000  0.7500000000000000
  0.0000000000000000  0.6250000000000000  0.5000000000000000
  0.1250000000000000  0.7500000000000000  0.7500000000000000
  0.0000000000000000  0.5000000000000000  0.6250000000000000
  0.1250000000000000  0.8749999999999999  0.8749999999999999
  0.0000000000000000  0.8749999999999999  0.7500000000000000
  0.3750000000000000  0.2500000000000000  0.0000000000000000
  0.2500000000000000  0.1250000000000000  0.7500000000000000
  0.2500000000000000  0.0000000000000000  0.8749999999999999
  0.3750000000000000  0.1250000000000000  0.8749999999999999
  0.3750000000000000  0.0000000000000000  0.7500000000000000
  0.2500000000000000  0.1250000000000000  0.5000000000000000
  0.2500000000000000  0.0000000000000000  0.6250000000000000
  0.3750000000000000  0.1250000000000000  0.6250000000000000
  0.3750000000000000  0.0000000000000000  0.5000000000000000
  0.2500000000000000  0.1250000000000000  0.2500000000000000
  0.2500000000000000  0.0000000000000000  0.3750000000000000
  0.3750000000000000  0.1250000000000000  0.3750000000000000
  0.3750000000000000  0.0000000000000000  0.2500000000000000
  0.2500000000000000  0.1250000000000000  0.0000000000000000
  0.2500000000000000  0.0000000000000000  0.1250000000000000
  0.3750000000000000  0.1250000000000000  0.1250000000000000
  0.3750000000000000  0.0000000000000000  0.0000000000000000
  0.0000000000000000  0.7500000000000000  0.8749999999999999
  0.1250000000000000  0.6250000000000000  0.6250000000000000
  0.1250000000000000  0.5000000000000000  0.5000000000000000
  0.0000000000000000  0.6250000000000000  0.2500000000000000
  0.1250000000000000  0.2500000000000000  0.0000000000000000
  0.0000000000000000  0.1250000000000000  0.7500000000000000
  0.0000000000000000  0.0000000000000000  0.8749999999999999
  0.1250000000000000  0.1250000000000000  0.8749999999999999
  0.1250000000000000  0.0000000000000000  0.7500000000000000
  0.0000000000000000  0.1250000000000000  0.5000000000000000
  0.0000000000000000  0.0000000000000000  0.6250000000000000
  0.1250000000000000  0.1250000000000000  0.6250000000000000
  0.1250000000000000  0.0000000000000000  0.5000000000000000
  0.0000000000000000  0.1250000000000000  0.2500000000000000
  0.0000000000000000  0.0000000000000000  0.3750000000000000
  0.1250000000000000  0.1250000000000000  0.3750000000000000
  0.1250000000000000  0.0000000000000000  0.2500000000000000
  0.0000000000000000  0.1250000000000000  0.0000000000000000
  0.0000000000000000  0.0000000000000000  0.1250000000000000
  0.1250000000000000  0.1250000000000000  0.1250000000000000
  0.1250000000000000  0.0000000000000000  0.0000000000000000
  0.1250000000000000  0.3750000000000000  0.1250000000000000
  0.0000000000000000  0.2500000000000000  0.1250000000000000
  0.0000000000000000  0.3750000000000000  0.0000000000000000
  0.1250000000000000  0.2500000000000000  0.2500000000000000
  0.0000000000000000  0.5000000000000000  0.3750000000000000
  0.1250000000000000  0.6250000000000000  0.3750000000000000
  0.1250000000000000  0.5000000000000000  0.2500000000000000
  0.0000000000000000  0.6250000000000000  0.0000000000000000
  0.0000000000000000  0.5000000000000000  0.1250000000000000
  0.1250000000000000  0.6250000000000000  0.1250000000000000
  0.1250000000000000  0.5000000000000000  0.0000000000000000
  0.0000000000000000  0.3750000000000000  0.7500000000000000
  0.3750000000000000  0.3750000000000000  0.1250000000000000
  0.0000000000000000  0.2500000000000000  0.8749999999999999
  0.1250000000000000  0.2500000000000000  0.7500000000000000
  0.0000000000000000  0.3750000000000000  0.5000000000000000
  0.0000000000000000  0.2500000000000000  0.6250000000000000
  0.1250000000000000  0.3750000000000000  0.6250000000000000
  0.1250000000000000  0.2500000000000000  0.5000000000000000
  0.0000000000000000  0.3750000000000000  0.2500000000000000
  0.0000000000000000  0.2500000000000000  0.3750000000000000
  0.1250000000000000  0.3750000000000000  0.3750000000000000
  0.1250000000000000  0.3750000000000000  0.8749999999999999
  0.2500000000000000  0.2500000000000000  0.1250000000000000
  0.2500000000000000  0.3750000000000000  0.0000000000000000
  0.3750000000000000  0.2500000000000000  0.2500000000000000
  0.6250000000000000  0.3750000000000000  0.1250000000000000
  0.6250000000000000  0.2500000000000000  0.0000000000000000
  0.5000000000000000  0.1250000000000000  0.7500000000000000
  0.5000000000000000  0.0000000000000000  0.8749999999999999
  0.6250000000000000  0.1250000000000000  0.8749999999999999
  0.6250000000000000  0.0000000000000000  0.7500000000000000
  0.5000000000000000  0.1250000000000000  0.5000000000000000
  0.5000000000000000  0.0000000000000000  0.6250000000000000
  0.6250000000000000  0.1250000000000000  0.6250000000000000
  0.6250000000000000  0.0000000000000000  0.5000000000000000
  0.5000000000000000  0.1250000000000000  0.2500000000000000
  0.5000000000000000  0.0000000000000000  0.3750000000000000
  0.6250000000000000  0.1250000000000000  0.3750000000000000
  0.6250000000000000  0.0000000000000000  0.2500000000000000
  0.5000000000000000  0.1250000000000000  0.0000000000000000
  0.5000000000000000  0.0000000000000000  0.1250000000000000
  0.6250000000000000  0.1250000000000000  0.1250000000000000
  0.5000000000000000  0.2500000000000000  0.1250000000000000
  0.5000000000000000  0.3750000000000000  0.0000000000000000
  0.6250000000000000  0.2500000000000000  0.2500000000000000
  0.6250000000000000  0.3750000000000000  0.3750000000000000
  0.5000000000000000  0.6250000000000000  0.2500000000000000
  0.5000000000000000  0.5000000000000000  0.3750000000000000
  0.6250000000000000  0.6250000000000000  0.3750000000000000
  0.6250000000000000  0.5000000000000000  0.2500000000000000
  0.5000000000000000  0.6250000000000000  0.0000000000000000
  0.5000000000000000  0.5000000000000000  0.1250000000000000
  0.6250000000000000  0.6250000000000000  0.1250000000000000
  0.6250000000000000  0.5000000000000000  0.0000000000000000
  0.6250000000000000  0.0000000000000000  0.0000000000000000
  0.5000000000000000  0.3750000000000000  0.7500000000000000
  0.6250000000000000  0.3750000000000000  0.8749999999999999
  0.6250000000000000  0.2500000000000000  0.7500000000000000
  0.5000000000000000  0.3750000000000000  0.5000000000000000
  0.5000000000000000  0.2500000000000000  0.6250000000000000
  0.6250000000000000  0.3750000000000000  0.6250000000000000
  0.6250000000000000  0.2500000000000000  0.5000000000000000
  0.5000000000000000  0.3750000000000000  0.2500000000000000
  0.5000000000000000  0.2500000000000000  0.3750000000000000
  0.5000000000000000  0.2500000000000000  0.8749999999999999
  0.6250000000000000  0.6250000000000000  0.6250000000000000
  0.2500000000000000  0.7500000000000000  0.8749999999999999
  0.3750000000000000  0.7500000000000000  0.7500000000000000
  0.3750000000000000  0.6250000000000000  0.3750000000000000
  0.3750000000000000  0.5000000000000000  0.2500000000000000
  0.2500000000000000  0.6250000000000000  0.0000000000000000
  0.2500000000000000  0.5000000000000000  0.1250000000000000
  0.3750000000000000  0.6250000000000000  0.1250000000000000
  0.3750000000000000  0.5000000000000000  0.0000000000000000
  0.2500000000000000  0.3750000000000000  0.7500000000000000
  0.2500000000000000  0.2500000000000000  0.8749999999999999
  0.3750000000000000  0.3750000000000000  0.8749999999999999
  0.3750000000000000  0.2500000000000000  0.7500000000000000
  0.2500000000000000  0.3750000000000000  0.5000000000000000
  0.2500000000000000  0.2500000000000000  0.6250000000000000
  0.3750000000000000  0.3750000000000000  0.6250000000000000
  0.3750000000000000  0.2500000000000000  0.5000000000000000
  0.2500000000000000  0.3750000000000000  0.2500000000000000
  0.2500000000000000  0.2500000000000000  0.3750000000000000