Pt
 1.0000000000000000
     5.6202399999999999    0.0000000000000000    0.0000000000000000
     0.0000000000000000    5.6202399999999999    0.0000000000000000
     0.0000000000000000    0.0000000000000000   16.8607200000000006
 Pt 
  17
Direct
  0.0000000000000000 -0.0000000000000000 -0.0039762516050267
  0.0000000000000000  0.5000000000000000 -0.0038882857219906
  0.5000000000000000 -0.0000000000000000 -0.0039699871517044
  0.5000000000000000  0.5000000000000000 -0.0039762516050267
  0.2502070811609852  0.2497929188390149  0.1151521140788613
  0.7497929188390146  0.2497929188390148  0.1151521140788613
  0.2502070811609852  0.7502070811609856  0.1151521140788613
  0.7497929188390146  0.7502070811609856  0.1151521140788613
 -0.0000000000000000  0.0000000000000000  0.2382998381993260
  0.0000000000000001  0.5000000000000000  0.2352111764778075
  0.5000000000000000  0.0000000000000000  0.2345976565291253
  0.5000000000000000  0.5000000000000000  0.2382998381993260
  0.2617146947051833  0.2382853052948168  0.3578192195417674
  0.7382853052948168  0.2382853052948165  0.3578192195417675
  0.2617146947051835  0.7617146947051833  0.3578192195417674
  0.7382853052948170  0.7617146947051835  0.3578192195417674
  0.0000000000000000  0.5000000000000000  0.4461151860138591
