 vasp-mace (MACE/ASE interface) -- VASP-compatible OUTCAR
 NIONS =   10

 INCAR:
   SYSTEM = PbS (100) slab, implicit solvation (after VASPsol examples/PbS_100)
   NSW = 0
   LSOL = .TRUE.
   EB_K = 80

 ions per type = 5  5
 POMASS = 207.200  32.060

 ------------------------------------------------------------------------------------------------------


 --------------------------------------- Iteration     1(   1)  ---------------------------------------

  FORCE on cell =-STRESS in cart. coord.  units (eV):
  Direction    XX          YY          ZZ          XY          YZ          ZX
  --------------------------------------------------------------------------------------
  Total      -0.44082    -0.44082     1.98475     0.00000     0.00000    -0.00000
  in kB      -1.78634    -1.78634     8.04288     0.00000     0.00000    -0.00000
  external pressure =        1.49 kB  Pullay stress =        0.00 kB

 VOLUME and BASIS-vectors are now :
 -----------------------------------------------------------------------------
  volume of cell :      395.37
      direct lattice vectors                 reciprocal lattice vectors
   2.997500000 -2.997500000  0.000000000    0.166805671 -0.166805671  0.000000000
   2.997500000  2.997500000  0.000000000    0.166805671  0.166805671  0.000000000
   0.000000000  0.000000000 22.001650000    0.000000000  0.000000000  0.045451137

  length of vectors
   4.239105153  4.239105153 22.001650000    0.235898843  0.235898843  0.045451137

 POSITION                                       TOTAL-FORCE (eV/Angst)
 -----------------------------------------------------------------------------------
      0.00000      0.00000      0.16479        -0.035186      0.035186      0.000938
      2.99750      0.00000      2.99750        -0.000000      0.000000      0.003554
      0.00000      0.00000      5.99500         0.000000      0.000000      0.000000
      2.99750      0.00000      8.99250         0.000000     -0.000000     -0.003554
      0.00000      0.00000     11.82521        -0.000000     -0.000000     -0.036124
      2.99750      0.00000      0.14929         0.035186     -0.035186     -0.155978
      0.00000      0.00000      2.99750         0.000000     -0.000000     -0.153710
      2.99750      0.00000      5.99500         0.000000     -0.000000     -0.000000
      0.00000      0.00000      8.99250        -0.000000      0.000000      0.153710
      2.99750      0.00000     11.84071        -0.000000      0.000000      0.191163
 -----------------------------------------------------------------------------------
    total drift:                                   -0.000000      0.000000     -0.000000


  FREE ENERGIE OF THE ION-ELECTRON SYSTEM (eV)
  ---------------------------------------------------
  free  energy   TOTEN  =             -44.25347210 eV

  energy  without entropy=            -44.25347210  energy(sigma->0) =            -44.25347210

 ------------------------------------------------------------------------------------------------------

 reached required accuracy - stopping structural energy minimisation


 General timing and accounting informations for this job:
 ========================================================

                  Total CPU time used (sec):       20.645
                         Elapsed time (sec):        2.297

                   Maximum memory used (kb):          N/A
                   Average memory used (kb):          N/A
