Mg O 
 1.0000000000000000
     4.2547856951246406   -0.0000000000000000   -0.0000000000000000
    -0.0000000000000000    4.2547856951246406    0.0000000000000000
    -0.0000000000000000    0.0000000000000000    4.2547856951246406
 Mg  O  
   4   4
Direct
 -0.0000000000000000 -0.0000000000000000  0.0000000000000000
  0.0000000000000000  0.4999999999999999  0.4999999999999999
  0.4999999999999999  0.0000000000000000  0.4999999999999999
  0.4999999999999999  0.4999999999999999  0.0000000000000000
  0.4999999999999999  0.4999999999999999  0.4999999999999999
  0.4999999999999999  0.0000000000000000 -0.0000000000000000
  0.0000000000000000  0.4999999999999999 -0.0000000000000000
 -0.0000000000000000 -0.0000000000000000  0.4999999999999999
