Mg O
 1.0000000000000000
     4.2551815557084645   -0.0000000000000000   -0.0000000000000000
    -0.0000000000000000    4.2551815557084645    0.0000000000000000
    -0.0000000000000000    0.0000000000000000    4.2551815557084645
 Mg  O
   4   4
Direct
 -0.0000000000000002 -0.0000000000000002 -0.0000000000000002
 -0.0000000000000002  0.4999999999999979  0.4999999999999978
  0.4999999999999979 -0.0000000000000002  0.4999999999999979
  0.4999999999999979  0.4999999999999978 -0.0000000000000002
  0.4999999999999979  0.4999999999999978  0.4999999999999979
  0.4999999999999979 -0.0000000000000002 -0.0000000000000002
 -0.0000000000000002  0.4999999999999979 -0.0000000000000003
 -0.0000000000000003 -0.0000000000000002  0.4999999999999978
