Pb Te
 1.0000000000000000
     6.4761876569600272   -0.0000000000000000    0.0000000000000000
    -0.0000000000000000    6.4761876569600272   -0.0000000000000000
     0.0000000000000000   -0.0000000000000000    6.4761876569600272
 Pb  Te 
   4   4
Direct
  0.0000000000000000  0.0000000000000000  0.0000000000000000
  0.0000000000000000  0.4999999999999988  0.4999999999999988
  0.4999999999999988  0.0000000000000000  0.4999999999999988
  0.4999999999999988  0.4999999999999988  0.0000000000000000
  0.4999999999999988  0.4999999999999988  0.4999999999999988
  0.4999999999999988  0.0000000000000000  0.0000000000000000
  0.0000000000000000  0.4999999999999988  0.0000000000000000
  0.0000000000000000  0.0000000000000000  0.4999999999999988
