Pb Te
 1.0000000000000000
     6.4987428464666106   -0.0000000000000000    0.0000000000000000
    -0.0000000000000000    6.4987428464666106    0.0000000000000000
     0.0000000000000000    0.0000000000000000    6.4987428464666106
 Pb  Te 
   4   4
Direct
 -0.0000000000000000 -0.0000000000000000 -0.0000000000000000
  0.0000000000000000  0.4999999999999987  0.4999999999999987
  0.4999999999999987  0.0000000000000000  0.4999999999999987
  0.4999999999999987  0.4999999999999987 -0.0000000000000000
  0.4999999999999987  0.4999999999999987  0.4999999999999987
  0.4999999999999987 -0.0000000000000000 -0.0000000000000000
 -0.0000000000000000  0.4999999999999987  0.0000000000000000
  0.0000000000000000 -0.0000000000000000  0.4999999999999987
