PbTe rock salt (conventional cell)
1.0
   6.4620  0.0000  0.0000
   0.0000  6.4620  0.0000
   0.0000  0.0000  6.4620
Pb Te
4 4
Direct
  0.00000000  0.00000000  0.00000000
  0.00000000  0.50000000  0.50000000
  0.50000000  0.00000000  0.50000000
  0.50000000  0.50000000  0.00000000
  0.50000000  0.50000000  0.50000000
  0.50000000  0.00000000  0.00000000
  0.00000000  0.50000000  0.00000000
  0.00000000  0.00000000  0.50000000
