Pb Te
 1.0000000000000000
    26.4166329953406951    0.0000000000000000    0.0000000000000000
     0.0000000000000000   26.4166329953406951    0.0000000000000000
     0.0000000000000000    0.0000000000000000   26.4166329953406951
 Pb  Te 
 256 256
Direct
 -0.0008125034478928  0.0114572558537468 -0.0088312154631973
  0.0040674581844201  0.0036135498206817  0.2455812295538118
  0.0097703327088627 -0.0039103668925581  0.5054564539181760
 -0.0019912293561511  0.0060335521766427  0.7438485646377611
 -0.0067414328130331  0.2504256399247722 -0.0072631991421192
 -0.0031328490440397  0.2451866073766384  0.2528774669995291
 -0.0112885344617289  0.2409015784556636  0.5002459780366625
 -0.0032745444171131  0.2616399189307982  0.7530926430404860
 -0.0070309812747527  0.4956325648029840  0.0057631736989568
  0.0121510058983389  0.4919392127579528  0.2522304210267460
  0.0063957747244953  0.4943735965546784  0.4978662664800081
  0.0054706718625979  0.5096595866150281  0.7411905089887043
 -0.0025546118334645  0.7541464386362484 -0.0009348176585389
 -0.0064729459084401  0.7552189680682513  0.2487954902862989
  0.0107814287396683  0.7450323671069689  0.4894572889499262
  0.0021922512402887  0.7523351057444283  0.7464065253377997
  0.2426695536710178  0.0002883030245671  0.0069079660935542
  0.2565924209283502 -0.0119856348509282  0.2467547811455107
  0.2546910539610749 -0.0073293484697787  0.5045546157072718
  0.2555008914136294 -0.0002593609831767  0.7512605938543861
  0.2496633151218717  0.2583742618187658 -0.0015943080390680
  0.2547521422712051  0.2537377914667727  0.2445292872690103
  0.2415764091391947  0.2497988115108038  0.4987516354247143
  0.2510742136934200  0.2565624864278964  0.7522524813444275
  0.2544702829925727  0.5085108921542884  0.0103988771905262
  0.2470507238192522  0.5007025256831571  0.2447881807895558
  0.2521404462700458  0.4852175843252405  0.4969366921362579
  0.2517876001410291  0.5009596550964822  0.7623818424630097
  0.2554015170756994  0.7408927335982503  0.0075517300435369
  0.2369222941559097  0.7423470588273300  0.2511845866275007
  0.2514963330941780  0.7435944797190779  0.4954013252909542
  0.2561277890389392  0.7437899080422509  0.7374573195692550
  0.5003840258926053  0.0010946321481681  0.0068302777528344
  0.5037233387470735  0.0012537215987387  0.2497284047507091
  0.4989730169649801 -0.0047179829934073  0.4994984313204150
  0.5045060134809697  0.0043806101324682  0.7473527256850101
  0.5005153776934327  0.2545288505172001 -0.0017223271790085
  0.5016003702952722  0.2424379337114302  0.2442431586685553
  0.4918998551973810  0.2438596830977262  0.4972367777554482
  0.5004279032778407  0.2433789596254553  0.7559315259392493
  0.4999590015098054  0.5092538084494014  0.0050930025662283
  0.5058976223057993  0.4934994933186149  0.2472824148345021
  0.4988872721248023  0.4915809311410879  0.4923605879312696
  0.5025437407272422  0.4883640743544238  0.7458442527842101
  0.4977351102750473  0.7516475701931143 -0.0058538724217157
  0.4919206885723599  0.7639711705735657  0.2498252278767403
  0.5030986730752796  0.7466041493180949  0.4858109638687219
  0.4962225402604518  0.7420512057875948  0.7525772502771304
  0.7426404979041067  0.0041500576747212  0.0058125950820821
  0.7475224117714681 -0.0012797620431545  0.2519761609849434
  0.7475196301883956 -0.0025666997946084  0.5029881607245184
  0.7550141848792307 -0.0079357212679608  0.7466739776307522
  0.7478171507629207  0.2516505674754810  0.0007851525046431
  0.7488470040440671  0.2487680796469197  0.2399364500885307
  0.7487990399390938  0.2484578405261785  0.5033578798209897
  0.7526489725470310  0.2494518380785265  0.7470713545655268
  0.7527799185953075  0.5001449927192793 -0.0091802377664342
  0.7558581267989828  0.5071389835092299  0.2361469069801909
  0.7477366797239265  0.4945786286213140  0.4979780165242537
  0.7518421637317089  0.5068300251765478  0.7478249877800152
  0.7411564393390664  0.7520854859115353 -0.0103676328140807
  0.7386281005908206  0.7501202989854794  0.2563581668128946
  0.7514372555632309  0.7548989662777145  0.5012217895225545
  0.7478844189139952  0.7384269148343666  0.7494057518961436
  0.0001372070778829  0.1265537341258428  0.1149124070307969
  0.0070726954780203  0.1262383711583367  0.3752498000630723
  0.0033487592746927  0.1362164068504026  0.6268143239185614
 -0.0079282464428067  0.1239051281097340  0.8693537764318280
 -0.0051816636531341  0.3778591078440557  0.1329128675908013
  0.0061973892417324  0.3722799937275402  0.3751631577742964
 -0.0006300921072195  0.3776789589612739  0.6403730272845034
  0.0010165029722501  0.3858454779628598  0.8854129146826401
  0.0003049044279358  0.6279863393948838  0.1159167279265651
 -0.0015583005050353  0.6188235953806637  0.3810375649029118
  0.0070888287022428  0.6320939461746288  0.6386549598826093
  0.0062545097616833  0.6181109724387193  0.8785632677348059
  0.0004546984210866  0.8799345450352424  0.1214812841146244
  0.0033516383320035  0.8737727367437195  0.3932941666514374
 -0.0087908512589133  0.8701500829146136  0.6348557395514314
  0.0028878969944643  0.8643374682552084  0.8762074822482422
  0.2513917400668504  0.1199208387375646  0.1170126859413824
  0.2404489961955306  0.1311776117305666  0.3744535728688474
  0.2422179320747589  0.1248187022044693  0.6257579518969177
  0.2504288641040552  0.1309553556008814  0.8762396523376866
  0.2527348451482195  0.3744440994287043  0.1176820751656483
  0.2528879091901958  0.3697412027287182  0.3680035087344150
  0.2506775825595725  0.3800712053741809  0.6248836989913702
  0.2460353264768356  0.3683809282068805  0.8725763299125325
  0.2431357404317200  0.6257137236356103  0.1234503162573137
  0.2445252878300015  0.6204663241941487  0.3752270898012084
  0.2483981278345476  0.6302728489541163  0.6225866358926452
  0.2593675218989682  0.6186398360313586  0.8730238970311438
  0.2467296524201877  0.8747620068366526  0.1167306668085824
  0.2560560028783102  0.8734046301964508  0.3763931046936670
  0.2472685179284893  0.8869273761089514  0.6302266078524869
  0.2508995594795841  0.8788950283833036  0.8663032924557796
  0.4943492574199306  0.1339487940158269  0.1228567875207096
  0.5013523539271885  0.1271182117313440  0.3695791780445359
  0.4980809308768378  0.1249251547827236  0.6138965095618004
  0.4926957001747886  0.1235756534264868  0.8646089184851464
  0.5025516617663597  0.3776323133934471  0.1211309840573837
  0.5051615782384050  0.3717248387729672  0.3707782577884634
  0.4958901745385208  0.3760490538242544  0.6215365360818670
  0.4969586968693028  0.3676025410407077  0.8655582722732150
  0.4991237247645213  0.6207132833031633  0.1271856515063457
  0.4916002938269367  0.6217076353611690  0.3779113282486317
  0.5000644505396435  0.6222038066745387  0.6251298247971444
  0.4970673536891785  0.6213135909621327  0.8722871543520730
  0.4928221510309672  0.8786682960594419  0.1237843605215060
  0.5107643848001984  0.8766497096972862  0.3721827760128007
  0.4998960116360817  0.8735982691338261  0.6230260086060105
  0.4919823910620000  0.8816883413222083  0.8810228134141154
  0.7547708708432668  0.1293371130644977  0.1217772826792921
  0.7532649866610384  0.1309516727210016  0.3740851972400857
  0.7578604400592873  0.1300567301747650  0.6219302199163094
  0.7490599101136981  0.1155854096356763  0.8762810757594354
  0.7393114513534587  0.3733238174198818  0.1249900564426324
  0.7634961408127474  0.3795979160240887  0.3780742529612800
  0.7606328115424370  0.3782808421573270  0.6270927522889039
  0.7460255928247843  0.3691007726026115  0.8818917632390489
  0.7528800648715192  0.6233373183046982  0.1133522767145029
  0.7450808765238578  0.6235108157107351  0.3740913610568074
  0.7568907565148120  0.6344639543171217  0.6164036592660167
  0.7501629781767415  0.6274790663304953  0.8773454548582805
  0.7403636250492197  0.8699807119810613  0.1238429013677666
  0.7563563576985786  0.8717884735112612  0.3744001563984019
  0.7513882532183599  0.8716326282448371  0.6243371030295196
  0.7440275721960149  0.8807576346386071  0.8856411853315083
  0.1198896040203874  0.0039396691608495  0.1174146144192433
  0.1278121257445636 -0.0071513114877641  0.3700476746075951
  0.1306417847042671 -0.0113701626614531  0.6203570801089995
  0.1130127535079065 -0.0048465060572309  0.8679204425627497
  0.1340105127671097  0.2499309536930132  0.1206898499429226
  0.1254467049314775  0.2485124377308746  0.3742713222840126
  0.1307598636802436  0.2506302534963740  0.6311640507523915
  0.1218725281718804  0.2403980448745983  0.8816040719707425
  0.1185346608624816  0.4937420780908406  0.1331690405430032
  0.1241017968718948  0.4982497121431770  0.3716345464880803
  0.1322938306300489  0.4928716325904758  0.6086918570097528
  0.1269270530817222  0.4949581500107162  0.8869756358480972
  0.1127428318211672  0.7499668308239863  0.1250181915994094
  0.1263093033275134  0.7499314886002131  0.3748454012223373
  0.1338307781362157  0.7479526981959504  0.6205804441076569
  0.1310174586967626  0.7426607432892876  0.8677320555202781
  0.3747352299471234 -0.0073079411266718  0.1298621919002023
  0.3804212012393703 -0.0058869126152470  0.3720316526345966
  0.3828405744770674 -0.0005051867684911  0.6242249982546166
  0.3767441095618476  0.0109604395053054  0.8798908026326789
  0.3719281324242397  0.2476835595503749  0.1254350159280782
  0.3782343539284084  0.2415114685550474  0.3717746434864547
  0.3667315468160743  0.2497533329048425  0.6204174028391871
  0.3710330140707678  0.2571208050102973  0.8777393654593416
  0.3796097754441813  0.4956819873042996  0.1261242280770102
  0.3770167653576157  0.4942998648209785  0.3635997577947691
  0.3802435967031197  0.5055281605680988  0.6187727977759887
  0.3776255187685649  0.4924792249027242  0.8806622939362267
  0.3791585724353301  0.7422289694382789  0.1337962603751985
  0.3707293485056649  0.7565209369710076  0.3825669798744147
  0.3802942344040907  0.7568154309352716  0.6311175635973461
  0.3653567980235686  0.7471239003352592  0.8749862084171223
  0.6139349350730884  0.0083398922119084  0.1274292528090194
  0.6263177843972777 -0.0030891100482375  0.3739165419166882
  0.6241586709051665  0.0014939652593198  0.6177849759311691
  0.6211004493219557  0.0041693475752579  0.8818918015077108
  0.6237349467565583  0.2457314590766276  0.1267878906436838
  0.6292833271318662  0.2443473138051104  0.3826061168515816
  0.6149264276673989  0.2478563209754017  0.6305425961223325
  0.6243756668999476  0.2541049343666785  0.8739819967346344
  0.6249826442234326  0.5165724952326299  0.1148281012305127
  0.6289460575397566  0.4992898479815683  0.3741595959717896
  0.6299000141517641  0.4979348902328124  0.6345852722876528
  0.6301018484322882  0.4959401024843816  0.8785698832363175
  0.6217325158649684  0.7516179263952375  0.1261740543271326
  0.6242527148741684  0.7526723887344842  0.3879811087367893
  0.6366162292684342  0.7483292806319737  0.6326009664548823
  0.6226508089213063  0.7480282704769909  0.8789003271925983
  0.8585538205855643  0.0039140818300512  0.1364623768899974
  0.8855203278620477 -0.0057068877237283  0.3751602957209690
  0.8839877362979800 -0.0071551483948073  0.6321282647596108
  0.8692600887272346 -0.0033554682175187  0.8912692253445673
  0.8791031822046149  0.2418037582635776  0.1318273861826578
  0.8752540136939037  0.2494110360218000  0.3721460564559139
  0.8767471949995858  0.2570446589228444  0.6175211258966434
  0.8716081059543039  0.2494017961253490  0.8653043129503629
  0.8711749574297977  0.4946474356683808  0.1359636206951864
  0.8753801009393022  0.4952720532231264  0.3753919984660611
  0.8834725206587734  0.4972912286396808  0.6216471529704164
  0.8694468493018692  0.4961939193515437  0.8697138937951455
  0.8793752682091386  0.7520452367192587  0.1202968188566136
  0.8751548269311032  0.7505716243205409  0.3703633958662975
  0.8826610611825392  0.7452877009105026  0.6247103946389573
  0.8838305203841057  0.7495806133250906  0.8744153285000974
  0.1304324573972464  0.1284820594990606  0.0032521909401863
  0.1261633355299662  0.1309116408418347  0.2496310879780093
  0.1309572055976270  0.1271283496592630  0.5058634541488007
  0.1205288171326183  0.1231128252402764  0.7535449837565844
  0.1260784332853362  0.3805033740697458  0.0070116335169939
  0.1136632607599861  0.3673121597623303  0.2581057614358043
  0.1157002643934365  0.3720183520039138  0.5015938275541308
  0.1359233948991421  0.3732831517181819  0.7521837614920756
  0.1212992186985653  0.6359239801852198  0.0051970716483167
  0.1116986392550461  0.6247396705225056  0.2533793485079869
  0.1381434771160830  0.6213340750364069  0.5030735810528207
  0.1332160335469069  0.6320149705770269  0.7497284416596405
  0.1181731338827614  0.8729615860776638 -0.0020377170448628
  0.1183597651966768  0.8817594408597214  0.2378365649742929
  0.1258139718463153  0.8797474563403618  0.4952454649865236
  0.1261537358340446  0.8712417400970970  0.7578231589130253
  0.3757555566887059  0.1314980457151392  0.0007157786748212
  0.3705137190893636  0.1265731230200832  0.2542831706303690
  0.3723218854258104  0.1257060642493318  0.4986262012591094
  0.3739478751030474  0.1383513115206336  0.7477611532959153
  0.3732808546824914  0.3850681172736340  0.0001566817879312
  0.3621370897662475  0.3727634623229165  0.2416218072214542
  0.3793397842816920  0.3730746568309360  0.4844061393774336
  0.3906628854148945  0.3775931855337891  0.7447076641434566
  0.3787270188236537  0.6254582711330373  0.0114536987525470
  0.3755278745391502  0.6222182698005034  0.2520330808053035
  0.3846610380554633  0.6322964994902691  0.5038409732022309
  0.3732233519440164  0.6275000174399940  0.7444270902173449
  0.3724455134760484  0.8923871572717907  0.0022780112686562
  0.3689967283369363  0.8708672046306486  0.2555127814009048
  0.3739928866587962  0.8758136922698917  0.5071995822018159
  0.3807973947711724  0.8784725914787757  0.7497497507128217
  0.6246226428990551  0.1293414609428661 -0.0047559058277047
  0.6298862075705560  0.1300304568585225  0.2390093765974475
  0.6298504421855623  0.1330563592395210  0.5017939950969167
  0.6325277013522934  0.1269914579676655  0.7535941821351853
  0.6242168882760456  0.3756004769746134  0.0058122274662196
  0.6172468140340328  0.3724623740544495  0.2611492384527077
  0.6239723251142353  0.3796516614504084  0.4995493088595903
  0.6345511116261305  0.3619809668517889  0.7374894743803110
  0.6191637429994713  0.6327414144925119  0.0089522176353678
  0.6138647362160786  0.6236337102670251  0.2625440251003150
  0.6321925400373352  0.6190590392606952  0.5057783627641161
  0.6185898702204695  0.6264716892034717  0.7482053518106874
  0.6195901473815969  0.8776259011386210  0.0049047034263895
  0.6193116613985873  0.8828594927834411  0.2419037569341544
  0.6201674905927871  0.8763573459404175  0.5093909284032374
  0.6262139639726854  0.8751394871718295  0.7523228827803535
  0.8753723664360937  0.1178500973877677 -0.0084408021863156
  0.8745357786031502  0.1208528066732297  0.2508977421408298
  0.8762236128386031  0.1149302309591190  0.5005665500243200
  0.8727329305769466  0.1282116383810762  0.7429390897498865
  0.8719929093374692  0.3650185365915347  0.0055189111899604
  0.8648194018069341  0.3778240620134418  0.2501203076157728
  0.8811776089162862  0.3745946921804633  0.4917425290503940
  0.8749025461196880  0.3834276829499658  0.7535003469976350
  0.8728597274704454  0.6183184345231522 -0.0044861012488071
  0.8784674925910719  0.6244321259276063  0.2514916584252320
  0.8914078623767133  0.6143543681094926  0.5091221860087732
  0.8783422236291367  0.6227574562369048  0.7597186323337898
  0.8685287569328616  0.8683894906945117  0.0027214998626156
  0.8833159048525606  0.8741336630345843  0.2415743572323621
  0.8751966387605591  0.8653972888881709  0.5024777065570543
  0.8696179912052333  0.8749444723860400  0.7601501291940663
  0.1257352440615974  0.1269602532234304  0.1251767848098623
  0.1283048631664319  0.1213727667197625  0.3681082502709320
  0.1284252449732479  0.1290643917585997  0.6265668121572210
  0.1243713148188816  0.1198196276452782  0.8734787812433532
  0.1201218933343961  0.3775241929712714  0.1262885087779412
  0.1205426755266007  0.3715856780898745  0.3764043834719124
  0.1312858537308677  0.3720588879064800  0.6214736275460315
  0.1256932914060789  0.3705073676783283  0.8747326191127111
  0.1284390558521508  0.6266278847534341  0.1120030512088161
  0.1251090967090172  0.6280937634241164  0.3694946021968060
  0.1215022856480705  0.6292402603259529  0.6242133183088512
  0.1365077683569170  0.6224977112206613  0.8636374847615078
  0.1231887154013141  0.8771767518150814  0.1255975056508928
  0.1270066374502139  0.8734057497467136  0.3733329394068953
  0.1252852335189516  0.8727429561028323  0.6186614813347410
  0.1294315278635255  0.8679521059845874  0.8786446725101665
  0.3800221860180734  0.1281320841084863  0.1317511286658506
  0.3834692851828508  0.1200679493429934  0.3715585368136414
  0.3751959217375558  0.1279597130742100  0.6245551642623505
  0.3759074145044375  0.1311834885083022  0.8755529670452111
  0.3704883994693877  0.3806720876848735  0.1267865509678218
  0.3718628864204372  0.3752925141023707  0.3648071078034659
  0.3756022015383556  0.3750218072207532  0.6273551875988667
  0.3727906537891377  0.3701536911234607  0.8756455562927630
  0.3835082280824183  0.6222161587048372  0.1299591729868458
  0.3744569790733266  0.6274797878790046  0.3755664495654997
  0.3711651483959616  0.6274668708894006  0.6230465457147503
  0.3774730034454420  0.6214100134641809  0.8657771038329433
  0.3745836338030230  0.8676629504701328  0.1304881495738789
  0.3762009137500296  0.8762416885038211  0.3835920516335021
  0.3734624024431971  0.8792958828321517  0.6273303768862843
  0.3698248179365137  0.8735424260537996  0.8800728501935796
  0.6304401933239026  0.1219687113098167  0.1168248389622003
  0.6254980884345772  0.1257651431380822  0.3824289563707050
  0.6320593985991402  0.1256946552647709  0.6295158425648515
  0.6225075023055138  0.1341726116589730  0.8784230632757014
  0.6202294698402221  0.3741261822064536  0.1312757198603326
  0.6252165524758594  0.3791918186116887  0.3786019525797985
  0.6249789386215227  0.3756104341633389  0.6255952699737145
  0.6251617567515672  0.3753152877857406  0.8669284758823891
  0.6386078113568705  0.6273822770792771  0.1287464383937875
  0.6271266576759350  0.6289931100131959  0.3846979451405440
  0.6232517434779585  0.6331365627810078  0.6287308347224799
  0.6348281523438207  0.6312228124639075  0.8765087506910441
  0.6136538562509340  0.8811052355031656  0.1239778016613472
  0.6258158207592271  0.8771884868685208  0.3732731490257591
  0.6254622715291572  0.8808072621655680  0.6303037621482607
  0.6241923154711126  0.8821098013865314  0.8779053308555474
  0.8846483683763778  0.1293397195437103  0.1339201258105982
  0.8824552101716706  0.1186739580162351  0.3808794130802375
  0.8847567046007913  0.1215911598372455  0.6221042705065146
  0.8716347165993475  0.1150899072993641  0.8675677156241167
  0.8688325695879692  0.3789362445973302  0.1270349760845456
  0.8783530299271711  0.3757077435360759  0.3788200467564672
  0.8792027139001967  0.3811164937214798  0.6330592583863074
  0.8758043017131575  0.3668773287364850  0.8785615076127669
  0.8848911327706974  0.6288762048211044  0.1181855474611132
  0.8752910836392662  0.6203044450278723  0.3658130367761547
  0.8812462314762070  0.6299332302612423  0.6245455637025155
  0.8856348042629498  0.6177864482062431  0.8744173825380853
  0.8737614150465198  0.8806879298230130  0.1228370972409767
  0.8785013157749043  0.8749994942341789  0.3743147793967698
  0.8747125848074363  0.8752340400808294  0.6360829496624605
  0.8801845947943302  0.8634214485483308  0.8833194359933807
  0.1224536464958002  0.0008852135740057 -0.0036871209359014
  0.1280590363493010 -0.0004450599866644  0.2449980921970880
  0.1347582701180134 -0.0019193475837482  0.4936143220354997
  0.1252288395241497 -0.0025614380716119  0.7499953224658878
  0.1322119555162749  0.2562130617649214 -0.0027543153193258
  0.1213034554548716  0.2507436408160337  0.2543906173937767
  0.1270337223233882  0.2487651865184632  0.5031190732019151
  0.1176652538885564  0.2552797982706922  0.7520514628637970
  0.1301206793708645  0.4941087904512740  0.0060222660156139
  0.1293016260764455  0.5030987788240342  0.2496931575108363
  0.1313400890883275  0.5051173255934495  0.4931474827995383
  0.1221275115608500  0.5115090725893727  0.7461218520091842
  0.1294562879141093  0.7578505356280051  0.0010692102999926
  0.1149133659501895  0.7496302027072600  0.2477066434702485
  0.1291523343118433  0.7489653602603218  0.4984807062462902
  0.1241177801411057  0.7558172496583376  0.7461202861983125
  0.3736627470158158  0.0019103781738999  0.0025361709447612
  0.3716259890411193  0.0027999099833797  0.2488474795341871
  0.3817179763518989  0.0043355979260144  0.4993421107936479
  0.3770656173856585 -0.0003703667303792  0.7454322593427303
  0.3755178726511043  0.2523396780357705  0.0039976895600736
  0.3768408919593460  0.2448549702360206  0.2554700439664399
  0.3759222009789583  0.2502910203485097  0.5016855371362954
  0.3729685600175953  0.2567588362562775  0.7501148668206581
  0.3752321953608191  0.5053462763078365  0.0021479549496932
  0.3759826162533873  0.4917432566809601  0.2471405139224543
  0.3768682401300228  0.4977808752726733  0.4957055990153591
  0.3702053727634491  0.4997056778897867  0.7520703713785253
  0.3771180763795284  0.7407969185001303 -0.0057178447887448
  0.3652444284495728  0.7550231051697273  0.2485749049191704
  0.3776352107446502  0.7522955890976197  0.5071635087580790
  0.3733261228533043  0.7489247266112196  0.7542048803707434
  0.6201479346255164  0.0016182342187763  0.0056992732739428
  0.6258191715136068  0.0153157161390490  0.2550487708802861
  0.6291542183400574  0.0013317421576264  0.4977427456881917
  0.6285400486458235 -0.0025612118840510  0.7561023775234468
  0.6261342175083827  0.2522562151940920 -0.0028078912364417
  0.6267781632098953  0.2503011779420798  0.2520660254474789
  0.6256856894285773  0.2521357181064844  0.5008389071176028
  0.6269379170461717  0.2412867391803798  0.7502238750162108
  0.6323845986770691  0.5036806825548248 -0.0045600917196453
  0.6287707033367173  0.5021228145620730  0.2571550140247973
  0.6276677894684108  0.5015109123117679  0.5006194377992866
  0.6221311556548348  0.5061461331880085  0.7498571302245262
  0.6279191531255205  0.7523889952801550 -0.0025739823267995
  0.6169072932840356  0.7589393063444148  0.2450415612253093
  0.6251395800993286  0.7608639835203137  0.5032953852886881
  0.6270954963282396  0.7415166309266992  0.7591849329304386
  0.8758404282764491  0.0006113634767630  0.0149128120734133
  0.8777693054609104 -0.0055151816653128  0.2607865772917478
  0.8779598619858340 -0.0092529335737994  0.5014917513130011
  0.8706630564881147 -0.0057477560345866  0.7550615495363778
  0.8736596577621596  0.2447373017959413 -0.0007945691191738
  0.8677826172659022  0.2471416206245041  0.2536646824625158
  0.8685310972293500  0.2492990094497837  0.4947287610990473
  0.8717252857648000  0.2458027694468077  0.7455448519476723
  0.8785292113383985  0.5020541945969458 -0.0142822486567138
  0.8807449948316154  0.5018531163866833  0.2521475157202091
  0.8763495701351403  0.4983852165565839  0.4973386071086983
  0.8616478316921105  0.4970915708413594  0.7419554683089972
  0.8788816755525294  0.7492395643106532  0.0062560427039630
  0.8723171714519843  0.7556232770150982  0.2531725187878877
  0.8736227489812716  0.7478918505364353  0.4942412340400300
  0.8802248326488032  0.7493313549362619  0.7580502273814944
  0.0013073441501959  0.1378385042834253 -0.0043988073273162
 -0.0040139456849442  0.1276146285395339  0.2496701140036385
  0.0011365080660126  0.1231360525412536  0.5015271129598842
 -0.0001211176767232  0.1286044187664380  0.7490902074187221
 -0.0072595129295488  0.3703146913884216 -0.0029239280054255
 -0.0040275568925550  0.3805822166721222  0.2470137409591074
  0.0029476176613522  0.3774969915706818  0.4946784580881212
  0.0004914554835677  0.3829132179092201  0.7581885709136591
  0.0039252927207541  0.6281510963525598 -0.0033461419142621
  0.0017026974827069  0.6190879313651084  0.2451796273538797
  0.0036373317980730  0.6174136917713950  0.4954210602946481
 -0.0019525328390896  0.6290814470609601  0.7529132372913755
 -0.0049244906026522  0.8831678448355359  0.0013231318034936
 -0.0013203569570010  0.8769616174708414  0.2587519468593166
  0.0038076017546630  0.8625051310319687  0.5112724853885979
 -0.0056506217109091  0.8694661334968096  0.7582390968631567
  0.2547973302085619  0.1275282161924901 -0.0001917473668747
  0.2469712173322817  0.1319830557469511  0.2470058103064605
  0.2510797237766958  0.1242000563302270  0.5016774388087516
  0.2513630072187510  0.1294664080433065  0.7532804393053155
  0.2509374923073433  0.3735985194979573 -0.0086787376230710
  0.2413781205480814  0.3792628729010981  0.2509124392198673
  0.2501566540369116  0.3731016202926364  0.5055627998278456
  0.2496393349226952  0.3790811684644846  0.7490062938153790
  0.2565661345209997  0.6224115453211501 -0.0020575105845104
  0.2565784280938244  0.6308550514248400  0.2494638672964587
  0.2582775506319985  0.6247521958255383  0.4894092456729488
  0.2508445703623076  0.6226281557099721  0.7419873622009590
  0.2473471057544350  0.8769964123480365 -0.0038865351842454
  0.2541714544080046  0.8730677953088454  0.2461793085443544
  0.2550008704063241  0.8710700302582393  0.5018122801675565
  0.2436092214067102  0.8832618811155523  0.7504837315438582
  0.4940489625803323  0.1230821232090734 -0.0102900147026560
  0.5093214446604137  0.1216211070516881  0.2380883924537588
  0.5075877060591618  0.1184398080177666  0.4947712710289923
  0.5052689579554203  0.1222762339060849  0.7484044741003872
  0.5015861233368820  0.3731188419768384 -0.0010680185438281
  0.4968086442221532  0.3690552174094314  0.2518118539466487
  0.4947087747005077  0.3698525585191819  0.4969799317038338
  0.5136140375134863  0.3727703709863422  0.7424344267626704
  0.5049941884689239  0.6291253385899066 -0.0022655568593499
  0.4976562299848883  0.6246047029170291  0.2508783218468137
  0.5065247284179678  0.6180417203336612  0.5066467597359803
  0.4968807707422398  0.6182790833424426  0.7430202908725472
  0.4964937901895069  0.8773192912651145  0.0068875808145215
  0.4978078405951020  0.8829488818113593  0.2502557339017472
  0.4954143488642285  0.8723327539263116  0.4962206671750629
  0.5066323818456777  0.8672585523651980  0.7453476739393644
  0.7492455152249103  0.1256872876470876 -0.0036573263501534
  0.7537695705509762  0.1258520760554108  0.2477837403671047
  0.7542806637430403  0.1278064288135606  0.4863898260991796
  0.7501087748081000  0.1166018672514877  0.7390276874001799
  0.7460215350904352  0.3720084847725773  0.0114119436222942
  0.7512456110977017  0.3837466049144099  0.2496426399107446
  0.7553000722214029  0.3766281865762868  0.4973353434994053
  0.7529668276316773  0.3689147055066822  0.7477814840158117
  0.7479143118936828  0.6190490264757154 -0.0019453740490371
  0.7467065342944493  0.6304971637952898  0.2496443369140723
  0.7580702572003838  0.6351319510155836  0.5010270819958276
  0.7452120727034212  0.6242061424173462  0.7407759235029111
  0.7474228352642694  0.8686917755541939  0.0004811968472350
  0.7546459246211950  0.8801027227949988  0.2450290963721916
  0.7432886043430930  0.8865257913825516  0.5066786311888174
  0.7516821313745866  0.8727460385405029  0.7558982706071556
 -0.0011677872797173  0.0036728194414055  0.1228646929489648
  0.0018854384697286 -0.0000471399375802  0.3789912205192291
  0.0077500714533024 -0.0042266738570468  0.6260331079599220
 -0.0116286194374232 -0.0008715303504458  0.8725153197689758
  0.0015365459281486  0.2492889320402100  0.1318566199769673
 -0.0000938716242195  0.2533781376880925  0.3816603379333176
  0.0043176845016949  0.2563293033520481  0.6239651699318655
  0.0053706260860420  0.2503053136740863  0.8712956797288680
  0.0000488003699813  0.5010818012485940  0.1311577071648582
  0.0016401988402688  0.5034297054630728  0.3788686526116334
  0.0023925553062844  0.5016027678341177  0.6236967904964271
 -0.0049930958716101  0.5005994912048924  0.8790065722017284
  0.0003053917170593  0.7479397681430239  0.1209352009366553
 -0.0030863685540231  0.7476590072673567  0.3705661444627016
 -0.0024571497854810  0.7441835038819182  0.6178256194474551
  0.0050915413928731  0.7423814412668172  0.8711605672340752
  0.2405984260087979  0.0019926307278046  0.1278282133327797
  0.2509341060848433  0.0064651670818234  0.3922102147086137
  0.2583209878135612 -0.0011960054998292  0.6261299643213029
  0.2580197089543029  0.0094389361115414  0.8754388517560358
  0.2458082228763508  0.2525316710730343  0.1264131893651875
  0.2450303853772741  0.2444720740766891  0.3787432349291443
  0.2480653669320881  0.2511356442024109  0.6198658108015850
  0.2480993957245067  0.2558015135651372  0.8774142771272343
  0.2458130141790878  0.5008012077902322  0.1214384412707461
  0.2509216608355216  0.5031240081375072  0.3651387903071184
  0.2549315134780975  0.4985406796916265  0.6116713601779235
  0.2473491486399141  0.5015923047409008  0.8783905939109903
  0.2482593184571416  0.7543433312836915  0.1245627980697024
  0.2418056926695652  0.7527850366931444  0.3794863074288215
  0.2503441670614436  0.7456283856632587  0.6270616228414324
  0.2469114347099095  0.7546698031651082  0.8611997857638807
  0.4894518835903460  0.0013918185793078  0.1249363379768587
  0.4943563143162604 -0.0017419284315643  0.3732725486707254
  0.5014290605792081 -0.0003082768971105  0.6257082684178947
  0.5026101009877083 -0.0047689716039911  0.8713415696747961
  0.5077276176424895  0.2478881393837015  0.1257672939794777
  0.5014870284913052  0.2486366736182678  0.3770153973444385
  0.5000188031951104  0.2469169094168391  0.6254715962430387