Pt
 1.0000000000000000
     5.6202399999999999    0.0000000000000000    0.0000000000000000
     0.0000000000000000    5.6202399999999999    0.0000000000000000
     0.0000000000000000    0.0000000000000000   16.8607200000000006
 Pt 
  17
Direct
  0.0005802931852708  0.0005831038825875 -0.0010389955094039
  0.0002963548772350  0.4997036451227651 -0.0011735145051927
  0.4996997849083719  0.0003002150916284 -0.0011840900045215
  0.4994168961174127  0.4994197068147292 -0.0010389955094035
  0.2500065822625339  0.2499934177374676  0.1142151631166812
  0.7499887661834791  0.2499894381072519  0.1151391277896720
  0.2500105618927497  0.7500112338165199  0.1151391277896723
  0.7499903056226457  0.7500096943773532  0.1134372932945743
  0.0026405051432493  0.0026346580290306  0.2331096200362630
  0.0013916141415084  0.4986083858584916  0.2319734466457354
  0.4986052564667185  0.0013947435332796  0.2320009843244935
  0.4973653419709690  0.4973594948567521  0.2331096200362626
  0.4078883005996374  0.0921116994003593  0.4226460225124674
  0.7500621310001854  0.2500369775143226  0.3433192461349642
  0.2499630224856810  0.7499378689998211  0.3433192461349638
  0.7499949912054741  0.7500050087945255  0.3529187610944705
  0.0921491914670717  0.4078508085329241  0.4227061904365119
