Pt
 1.0000000000000000
     5.6202399999999999    0.0000000000000000    0.0000000000000000
     0.0000000000000000    5.6202399999999999    0.0000000000000000
     0.0000000000000000    0.0000000000000000   16.8607200000000006
 Pt 
  17
Direct
  0.0012853111307462  0.0012868258937912 -0.0065353531749479
  0.0013078801604719  0.4986921198395318 -0.0066573937337341
  0.4986929147154883  0.0013070852845072 -0.0066574907050520
  0.4987131741062061  0.4987146888692592 -0.0065353531749437
  0.2500055371566833  0.2499944628433329  0.1134980564756238
  0.7499875149737419  0.2499904547082465  0.1140898712836611
  0.2500095452917653  0.7500124850262410  0.1140898712836532
  0.7499964751838644  0.7500035248161221  0.1084851598673564
 -0.0021256970948014 -0.0021041750310976  0.2346707293294815
  0.0087832511457763  0.4912167488542024  0.2338778954462896
  0.4911750203654980  0.0088249796345622  0.2339220747615415
  0.5021041750311284  0.5021256970947510  0.2346707293294779
  0.4107002639020762  0.0892997360979444  0.4284925520329314
  0.7500585672566883  0.2500654269036954  0.3454105258130965
  0.2499345730962561  0.7499414327432443  0.3454105258131170
  0.7499939972445501  0.7500060027554631  0.3598245563555836
  0.0894303103386099  0.4105696896614555  0.4285412968150744
