Mg O 
 1.0000000000000000
     4.2111999999999998    0.0000000000000000    0.0000000000000000
     0.0000000000000000    4.2111999999999998    0.0000000000000000
     0.0000000000000000    0.0000000000000000    4.2111999999999998
 Mg  O  
   4   4
Direct
 -0.0115247390261289  0.0061602486342589 -0.0171493000531430
 -0.0120241776083712  0.5210597093495443  0.4942985644030924
  0.4890574977412457  0.0007049137329061  0.5072174876018727
  0.4928402500505144  0.5134739058630907 -0.0133801102892622
  0.4896287145358819  0.4996323254090053  0.4807105776633541
  0.5099308741316680  0.0216559711605002 -0.0201647811558633
 -0.0034995089407860  0.5001823596757383 -0.0116899425544875
 -0.0051388703239934 -0.0198256971207573  0.4891756168296629
Cartesian
  0.0055026161107762  0.0014570262323465  0.0018543801075485
  0.0002578187814221 -0.0006753457198748  0.0000409256282753
 -0.0000489070204353 -0.0010384174741831 -0.0021739389173267
 -0.0001240011326533  0.0022951051647275 -0.0001501875169412
  0.0002763759927414  0.0008307864412890 -0.0030787871957391
 -0.0040414991385115 -0.0074241845953034 -0.0015807136930503
 -0.0012690637859629 -0.0012046919023662 -0.0008906230530455
 -0.0052416542447621  0.0062705090040475  0.0035948309372851
