MgO rock salt (conventional cell)
1.0
   4.2112  0.0000  0.0000
   0.0000  4.2112  0.0000
   0.0000  0.0000  4.2112
Mg O
4 4
Direct
  0.00000000  0.00000000  0.00000000
  0.00000000  0.50000000  0.50000000
  0.50000000  0.00000000  0.50000000
  0.50000000  0.50000000  0.00000000
  0.50000000  0.50000000  0.50000000
  0.50000000  0.00000000  0.00000000
  0.00000000  0.50000000  0.00000000
  0.00000000  0.00000000  0.50000000
