Pt
 1.0000000000000000
     5.6202399999999999    0.0000000000000000    0.0000000000000000
     0.0000000000000000    5.6202399999999999    0.0000000000000000
     0.0000000000000000    0.0000000000000000   16.8607200000000006
 Pt 
  17
Direct
 -0.0024404025470256  0.0032419857746371 -0.0003876193604468
 -0.0027896142643271  0.5027896142643276 -0.0006315499210701
  0.4977326355725377  0.0022673644274596 -0.0003620974875579
  0.4967580142253628  0.5024404025470285 -0.0003876193604476
  0.2459856231640949  0.2540143768358976  0.1144901593595982
  0.7455483189137180  0.2547395390776519  0.1157578783276103
  0.2452604609223488  0.7544516810862906  0.1157578783276074
  0.7465955810996373  0.7534044189003621  0.1150471550364826
 -0.0071176384708335  0.0100305086029945  0.2334686562332128
 -0.0022579030029513  0.5022579030029246  0.2346382152378799
  0.4890696718510212  0.0109303281489774  0.2336098826600492
  0.4899694913970273  0.5071176384708289  0.2334686562332156
  0.4521693172350091  0.0478306827649570  0.4365631260954239
  0.7290160514766766  0.2677502808343422  0.3461570465769424
  0.2322497191656946  0.7709839485233648  0.3461570465769508
  0.7445933062422899  0.7554066937576981  0.3524525012806229
  0.1508072896355809  0.3491927103643985  0.3927989380021368
