Pt
 1.0000000000000000
     5.6202399999999999    0.0000000000000000    0.0000000000000000
     0.0000000000000000    5.6202399999999999    0.0000000000000000
     0.0000000000000000    0.0000000000000000   16.8607200000000006
 Pt 
  17
Direct
 -0.0004259955488995  0.0027592904403736 -0.0058243817577579
 -0.0003460439213760  0.5003460439213790 -0.0059156471286820
  0.4974278990035343  0.0025721009964602 -0.0058753266357732
  0.4972407095596231  0.5004259955489050 -0.0058243817577603
  0.2463395606955493  0.2536604393044363  0.1143091637526811
  0.7477117471273602  0.2539621483138131  0.1147348878650712
  0.2460378516861835  0.7522882528726555  0.1147348878650638
  0.7484039034656929  0.7515960965343111  0.1098106564394171
 -0.0082041138717659  0.0088056799516782  0.2357830064058476
 -0.0011199896236499  0.5011199896235827  0.2366319862142910
  0.4887436187107097  0.0112563812892934  0.2330725193385036
  0.4911943200483749  0.5082041138717505  0.2357830064058530
  0.4514420049976425  0.0485579950022382  0.4421508073743020
  0.7265028185231492  0.2670361037583227  0.3499932142363668
  0.2329638962417862  0.7734971814769908  0.3499932142363931
  0.7445925546125099  0.7554074453874643  0.3590419946068319
  0.1492724214089394  0.3507275785909833  0.3959986463575615
