Si
 1.0000000000000000
     5.4699999999999998    5.4699999999999998    0.0000000000000000
     0.0000000000000000    5.4699999999999998    5.4699999999999998
     5.4699999999999998    0.0000000000000000    5.4699999999999998
 Si 
  15
Direct
  0.0002346860561206  0.0002346860561207  0.0002346860561206
  0.1265659823396325  0.1265659823396322  0.1265659823396322
  0.0000683969704937  0.0000683969704936  0.5047468680113958
  0.1284694141607784  0.1284694141607780  0.6229662735872754
  0.0000683969704937  0.5047468680113960  0.0000683969704935
  0.1284694141607782  0.6229662735872756  0.1284694141607781
 -0.0099323683673914  0.5061073432800677  0.5061073432800678
  0.1449943384656081  0.6235371256468270  0.6235371256468271
  0.5047468680113959  0.0000683969704939  0.0000683969704936
  0.6229662735872757  0.1284694141607783  0.1284694141607781
  0.5061073432800678 -0.0099323683673897  0.5061073432800675
  0.6235371256468275  0.1449943384656086  0.6235371256468271
  0.5061073432800678  0.5061073432800679 -0.0099323683673897
  0.6235371256468273  0.6235371256468273  0.1449943384656087
  0.5368056815455056  0.5368056815455035  0.5368056815455032
