Si
 1.0000000000000000
     5.4699999999999998    5.4699999999999998    0.0000000000000000
     0.0000000000000000    5.4699999999999998    5.4699999999999998
     5.4699999999999998    0.0000000000000000    5.4699999999999998
 Si 
  15
Direct
  0.0003432666070696  0.0003432666070679  0.0003432666070691
  0.1261557304341763  0.1261557304341758  0.1261557304341760
  0.0001901287821475  0.0001901287821447  0.5039337473963352
  0.1284623365601653  0.1284623365601712  0.6229658766751502
  0.0001901287821449  0.5039337473963357  0.0001901287821461
  0.1284623365601684  0.6229658766751515  0.1284623365601680
 -0.0084202481526274  0.5053355687237170  0.5053355687237203
  0.1453553768031595  0.6233047896579639  0.6233047896579625
  0.5039337473963356  0.0001901287821459  0.0001901287821454
  0.6229658766751505  0.1284623365601681  0.1284623365601681
  0.5053355687237215 -0.0084202481526282  0.5053355687237188
  0.6233047896579619  0.1453553768031607  0.6233047896579641
  0.5053355687237192  0.5053355687237198 -0.0084202481526275
  0.6233047896579640  0.6233047896579632  0.1453553768031600
  0.5369007104808948  0.5369007104808932  0.5369007104808929
