Si
 1.0000000000000000
     5.4699999999999998    5.4699999999999998    0.0000000000000000
     0.0000000000000000    5.4699999999999998    5.4699999999999998
     5.4699999999999998    0.0000000000000000    5.4699999999999998
 Si 
  15
Direct
 -0.0013025021297985 -0.0013025021297986 -0.0013025021297988
  0.1249846566960485  0.1249846566960486  0.1249846566960485
 -0.0036871134129601 -0.0036871134129603  0.5019620412878447
  0.1248590930013386  0.1248590930013385  0.6203126745305497
 -0.0036871134129602  0.5019620412878449 -0.0036871134129602
  0.1248590930013386  0.6203126745305498  0.1248590930013385
 -0.0165802508309284  0.5013710816671649  0.5013710816671649
  0.1341761676712656  0.6184689097493208  0.6184689097493209
  0.5019620412878451 -0.0036871134129601 -0.0036871134129603
  0.6203126745305498  0.1248590930013388  0.1248590930013385
  0.5013710816671654 -0.0165802508309283  0.5013710816671648
  0.6184689097493208  0.1341761676712666  0.6184689097493208
  0.5013710816671653  0.5013710816671652 -0.0165802508309283
  0.6184689097493208  0.6184689097493209  0.1341761676712664
  0.5988394730299327  0.5988394730299317  0.5988394730299317
