Si
 1.0000000000000000
     5.4699999999999998    5.4699999999999998    0.0000000000000000
     0.0000000000000000    5.4699999999999998    5.4699999999999998
     5.4699999999999998    0.0000000000000000    5.4699999999999998
 Si 
  15
Direct
 -0.0009971125388846 -0.0009971125388835 -0.0009971125388845
  0.1247535555594625  0.1247535555594627  0.1247535555594612
 -0.0035494653120312 -0.0035494653120319  0.5018007220505442
  0.1246769071819932  0.1246769071819920  0.6213396083909776
 -0.0035494653120318  0.5018007220505432 -0.0035494653120290
  0.1246769071819931  0.6213396083909771  0.1246769071819909
 -0.0165668010680611  0.5016107951289869  0.5016107951289882
  0.1315313965394497  0.6196005313791011  0.6196005313790983
  0.5018007220505436 -0.0035494653120325 -0.0035494653120301
  0.6213396083909786  0.1246769071819918  0.1246769071819920
  0.5016107951289865 -0.0165668010680603  0.5016107951289879
  0.6196005313791001  0.1315313965394501  0.6196005313790992
  0.5016107951289867  0.5016107951289883 -0.0165668010680605
  0.6196005313791001  0.6196005313791011  0.1315313965394493
  0.5986383185969485  0.5986383185969476  0.5986383185969473
