B  N 
 1.0000000000000000
     2.5051606037499314   -0.0000000089100521    0.0000000000000001
    -1.2525803095897290    2.1687269447893427   -0.0000000000000003
     0.0000000000000002   -0.0000000000000009    6.5837578397355969
 B   N  
   2   2
Direct
  0.3333118929010720  0.6666238049911341  0.2500000000000052
  0.6666881070989172  0.3333761950088562  0.7500000000000173
  0.6666879266676652  0.3333758340912809  0.2500000000000059
  0.3333120733323232  0.6666241659087102  0.7500000000000172
