B  N 
 1.0000000000000000
     2.5127267478291579   -0.0000000041482953    0.0000000000000002
    -1.2563633775030341    2.1756783276286247   -0.0000000000000001
     0.0000000000000006   -0.0000000000000001    7.2648113004309245
 B   N  
   2   2
Direct
  0.3333228870950838  0.6666457805639321  0.2500000000000019
  0.6666771129049200  0.3333542194360811  0.7499999999999994
  0.6666766317514451  0.3333532573717388  0.2500000000000017
  0.3333233682485587  0.6666467426282744  0.7499999999999998
