B  N 
 1.0000000000000000
     2.5114485467551928   -0.0000000068939697    0.0000000000000001
    -1.2557242793384289    2.1741886522743319   -0.0000000000000004
     0.0000000000000003   -0.0000000000000010    7.3163141544816535
 B   N  
   2   2
Direct
  0.3333188292326858  0.6666376587906655  0.2500000000000036
  0.6666811707673125  0.3333623412093388  0.7500000000000067
  0.6666805742250630  0.3333611483190150  0.2500000000000038
  0.3333194257749353  0.6666388516809891  0.7500000000000067
