NSW    = 100    # Max number of ionic steps
ISIF   = 3      # Relax atomic positions, cell shape, and volume
EDIFFG = -0.01  # Convergence criterion: max ionic force (eV/Å)
IVDW   = 12     # Empirical dispersion correction: D3(Becke-Johnson)
