 vasp-mace (MACE/ASE interface) -- VASP-compatible OUTCAR
 NIONS =   4

 INCAR:
   NSW = 100
   ISIF = 3
   EDIFFG = -0.01
   IVDW = 12

 ions per type = 2  2
 POMASS = 10.810  14.007

 ------------------------------------------------------------------------------------------------------


 --------------------------------------- Iteration     1(   1)  ---------------------------------------

  FORCE on cell =-STRESS in cart. coord.  units (eV):
  Direction    XX          YY          ZZ          XY          YZ          ZX
  --------------------------------------------------------------------------------------
  Total       0.11316     0.10614     0.30192     0.00000    -0.00000     0.00000
  in kB       5.00946     4.69871    13.36564     0.00000    -0.00000     0.00000
  external pressure =        7.69 kB  Pullay stress =        0.00 kB

 VOLUME and BASIS-vectors are now :
 -----------------------------------------------------------------------------
  volume of cell :       36.19
      direct lattice vectors                 reciprocal lattice vectors
   2.504306773  0.000000001  0.000000000    0.399312101  0.230526365 -0.000000000
  -1.252153386  2.168949307  0.000000000   -0.000000000  0.461052730 -0.000000000
   0.000000000  0.000000000  6.663011235   -0.000000000 -0.000000000  0.150082292

  length of vectors
   2.504306773  2.504441894  6.663011235    0.461077606  0.461052730  0.150082292

 POSITION                                       TOTAL-FORCE (eV/Angst)
 -----------------------------------------------------------------------------------
     -0.00000      1.44598      1.66575         0.000000      0.000137     -0.000000
      1.25215      0.72297      4.99726        -0.000000     -0.000137     -0.000000
      1.25215      0.72297      1.66575        -0.000000     -0.000144      0.000000
     -0.00000      1.44598      4.99726         0.000000      0.000144     -0.000000
 -----------------------------------------------------------------------------------
    total drift:                                    0.000000     -0.000000     -0.000000


  FREE ENERGIE OF THE ION-ELECTRON SYSTEM (eV)
  ---------------------------------------------------
  free  energy   TOTEN  =             -35.42975381 eV

  energy  without entropy=            -35.42975381  energy(sigma->0) =            -35.42975381

 ------------------------------------------------------------------------------------------------------

 --------------------------------------- Iteration     2(   1)  ---------------------------------------

  FORCE on cell =-STRESS in cart. coord.  units (eV):
  Direction    XX          YY          ZZ          XY          YZ          ZX
  --------------------------------------------------------------------------------------
  Total      -0.28445    -0.27449     0.25094    -0.00000    -0.00000    -0.00000
  in kB     -12.47479   -12.03823    11.00511    -0.00009    -0.00000    -0.00000
  external pressure =       -4.50 kB  Pullay stress =        0.00 kB

 VOLUME and BASIS-vectors are now :
 -----------------------------------------------------------------------------
  volume of cell :       36.53
      direct lattice vectors                 reciprocal lattice vectors
   2.509471954  0.000000006  0.000000000    0.398490207  0.230081229 -0.000000000
  -1.254735972  2.173145541 -0.000000000   -0.000000001  0.460162460  0.000000000
   0.000000000 -0.000000000  6.698982777   -0.000000000  0.000000000  0.149276395

  length of vectors
   2.509471954  2.509367231  6.698982777    0.460143257  0.460162460  0.149276395

 POSITION                                       TOTAL-FORCE (eV/Angst)
 -----------------------------------------------------------------------------------
      0.00000      1.44883      1.67475        -0.000003     -0.003462     -0.000000
      1.25474      0.72432      5.02424         0.000003      0.003462      0.000000
      1.25474      0.72432      1.67475         0.000003      0.003487     -0.000000
      0.00000      1.44883      5.02424        -0.000003     -0.003487      0.000000
 -----------------------------------------------------------------------------------
    total drift:                                   -0.000000      0.000000      0.000000


  FREE ENERGIE OF THE ION-ELECTRON SYSTEM (eV)
  ---------------------------------------------------
  free  energy   TOTEN  =             -35.43088537 eV

  energy  without entropy=            -35.43088537  energy(sigma->0) =            -35.43088537

 ------------------------------------------------------------------------------------------------------

 --------------------------------------- Iteration     3(   1)  ---------------------------------------

  FORCE on cell =-STRESS in cart. coord.  units (eV):
  Direction    XX          YY          ZZ          XY          YZ          ZX
  --------------------------------------------------------------------------------------
  Total      -0.32301    -0.31284     0.23751    -0.00000     0.00000    -0.00000
  in kB     -14.13975   -13.69492    10.39692    -0.00006     0.00000    -0.00000
  external pressure =       -5.81 kB  Pullay stress =        0.00 kB

 VOLUME and BASIS-vectors are now :
 -----------------------------------------------------------------------------
  volume of cell :       36.60
      direct lattice vectors                 reciprocal lattice vectors
   2.509999144  0.000000003  0.000000000    0.398406510  0.230037651 -0.000000000
  -1.254999569  2.173557221 -0.000000000   -0.000000001  0.460075304  0.000000000
   0.000000000 -0.000000000  6.708648923   -0.000000000  0.000000000  0.149061310

  length of vectors
   2.509999144  2.509855556  6.708648923    0.460048985  0.460075304  0.149061310

 POSITION                                       TOTAL-FORCE (eV/Angst)
 -----------------------------------------------------------------------------------
      0.00000      1.44907      1.67716        -0.000002     -0.002176     -0.000000
      1.25500      0.72449      5.03149         0.000002      0.002176      0.000000
      1.25500      0.72448      1.67716         0.000002      0.002196     -0.000000
      0.00000      1.44907      5.03149        -0.000002     -0.002196      0.000000
 -----------------------------------------------------------------------------------
    total drift:                                    0.000000      0.000000      0.000000


  FREE ENERGIE OF THE ION-ELECTRON SYSTEM (eV)
  ---------------------------------------------------
  free  energy   TOTEN  =             -35.43110585 eV

  energy  without entropy=            -35.43110585  energy(sigma->0) =            -35.43110585

 ------------------------------------------------------------------------------------------------------

 --------------------------------------- Iteration     4(   1)  ---------------------------------------

  FORCE on cell =-STRESS in cart. coord.  units (eV):
  Direction    XX          YY          ZZ          XY          YZ          ZX
  --------------------------------------------------------------------------------------
  Total      -0.43930    -0.42915     0.12729     0.00000    -0.00000    -0.00000
  in kB     -18.97713   -18.53867     5.49886     0.00020    -0.00000    -0.00000
  external pressure =      -10.67 kB  Pullay stress =        0.00 kB

 VOLUME and BASIS-vectors are now :
 -----------------------------------------------------------------------------
  volume of cell :       37.09
      direct lattice vectors                 reciprocal lattice vectors
   2.511716672 -0.000000019  0.000000000    0.398134079  0.229912555 -0.000000000
  -1.255858352  2.174739909  0.000000000    0.000000003  0.459825104 -0.000000000
   0.000000000  0.000000000  6.789870442   -0.000000000 -0.000000000  0.147278215

  length of vectors
   2.511716672  2.511309195  6.789870442    0.459750506  0.459825104  0.147278215

 POSITION                                       TOTAL-FORCE (eV/Angst)
 -----------------------------------------------------------------------------------
     -0.00000      1.44962      1.69747         0.000006      0.007712     -0.000000
      1.25586      0.72512      5.09240        -0.000006     -0.007712      0.000000
      1.25586      0.72511      1.69747        -0.000006     -0.007736     -0.000000
     -0.00000      1.44963      5.09240         0.000006      0.007736      0.000000
 -----------------------------------------------------------------------------------
    total drift:                                   -0.000000      0.000000      0.000000


  FREE ENERGIE OF THE ION-ELECTRON SYSTEM (eV)
  ---------------------------------------------------
  free  energy   TOTEN  =             -35.43281705 eV

  energy  without entropy=            -35.43281705  energy(sigma->0) =            -35.43281705

 ------------------------------------------------------------------------------------------------------

 --------------------------------------- Iteration     5(   1)  ---------------------------------------

  FORCE on cell =-STRESS in cart. coord.  units (eV):
  Direction    XX          YY          ZZ          XY          YZ          ZX
  --------------------------------------------------------------------------------------
  Total      -0.34671    -0.33360     0.04038     0.00001     0.00000     0.00000
  in kB     -14.84882   -14.28743     1.72944     0.00029     0.00000     0.00000
  external pressure =       -9.14 kB  Pullay stress =        0.00 kB

 VOLUME and BASIS-vectors are now :
 -----------------------------------------------------------------------------
  volume of cell :       37.41
      direct lattice vectors                 reciprocal lattice vectors
   2.510609553 -0.000000027  0.000000000    0.398309648  0.230032574 -0.000000000
  -1.255304800  2.173605256  0.000000000    0.000000005  0.460065140 -0.000000000
   0.000000000  0.000000000  6.855313996   -0.000000000 -0.000000000  0.145872239

  length of vectors
   2.510609553  2.510049790  6.855313996    0.459962564  0.460065140  0.145872239

 POSITION                                       TOTAL-FORCE (eV/Angst)
 -----------------------------------------------------------------------------------
     -0.00000      1.44878      1.71383         0.000009      0.011108     -0.000000
      1.25530      0.72482      5.14149        -0.000009     -0.011108      0.000000
      1.25530      0.72482      1.71383        -0.000009     -0.011144     -0.000000
     -0.00000      1.44878      5.14149         0.000009      0.011144      0.000000
 -----------------------------------------------------------------------------------
    total drift:                                    0.000000     -0.000000     -0.000000


  FREE ENERGIE OF THE ION-ELECTRON SYSTEM (eV)
  ---------------------------------------------------
  free  energy   TOTEN  =             -35.43396979 eV

  energy  without entropy=            -35.43396979  energy(sigma->0) =            -35.43396979

 ------------------------------------------------------------------------------------------------------

 --------------------------------------- Iteration     6(   1)  ---------------------------------------

  FORCE on cell =-STRESS in cart. coord.  units (eV):
  Direction    XX          YY          ZZ          XY          YZ          ZX
  --------------------------------------------------------------------------------------
  Total      -0.12813    -0.10873    -0.01099     0.00000     0.00000     0.00000
  in kB      -5.46952    -4.64125    -0.46903     0.00019     0.00000     0.00000
  external pressure =       -3.53 kB  Pullay stress =        0.00 kB

 VOLUME and BASIS-vectors are now :
 -----------------------------------------------------------------------------
  volume of cell :       37.53
      direct lattice vectors                 reciprocal lattice vectors
   2.507736746 -0.000000018  0.000000000    0.398765941  0.230298311 -0.000000000
  -1.253868389  2.171097161  0.000000000    0.000000003  0.460596616 -0.000000000
   0.000000000  0.000000000  6.893749476   -0.000000000 -0.000000000  0.145058941

  length of vectors
   2.507736746  2.507159512  6.893749476    0.460490595  0.460596616  0.145058941

 POSITION                                       TOTAL-FORCE (eV/Angst)
 -----------------------------------------------------------------------------------
     -0.00000      1.44720      1.72344         0.000005      0.006976     -0.000000
      1.25387      0.72390      5.17031        -0.000005     -0.006976      0.000000
      1.25387      0.72390      1.72344        -0.000005     -0.006983     -0.000000
     -0.00000      1.44720      5.17031         0.000005      0.006983      0.000000
 -----------------------------------------------------------------------------------
    total drift:                                    0.000000      0.000000     -0.000000


  FREE ENERGIE OF THE ION-ELECTRON SYSTEM (eV)
  ---------------------------------------------------
  free  energy   TOTEN  =             -35.43458141 eV

  energy  without entropy=            -35.43458141  energy(sigma->0) =            -35.43458141

 ------------------------------------------------------------------------------------------------------

 --------------------------------------- Iteration     7(   1)  ---------------------------------------

  FORCE on cell =-STRESS in cart. coord.  units (eV):
  Direction    XX          YY          ZZ          XY          YZ          ZX
  --------------------------------------------------------------------------------------
  Total      -0.02784    -0.00589    -0.00732     0.00000     0.00000     0.00000
  in kB      -1.19035    -0.25185    -0.31294     0.00006     0.00000     0.00000
  external pressure =       -0.59 kB  Pullay stress =        0.00 kB

 VOLUME and BASIS-vectors are now :
 -----------------------------------------------------------------------------
  volume of cell :       37.48
      direct lattice vectors                 reciprocal lattice vectors
   2.506365776 -0.000000008  0.000000000    0.398984063  0.230414654 -0.000000000
  -1.253182895  2.170000883  0.000000000    0.000000001  0.460829306 -0.000000000
   0.000000000  0.000000000  6.890959652   -0.000000000 -0.000000000  0.145117669

  length of vectors
   2.506365776  2.505867355  6.890959652    0.460737665  0.460829306  0.145117669

 POSITION                                       TOTAL-FORCE (eV/Angst)
 -----------------------------------------------------------------------------------
     -0.00000      1.44657      1.72274         0.000002      0.002203     -0.000000
      1.25318      0.72343      5.16822        -0.000002     -0.002203      0.000000
      1.25318      0.72342      1.72274        -0.000002     -0.002183     -0.000000
     -0.00000      1.44658      5.16822         0.000002      0.002183      0.000000
 -----------------------------------------------------------------------------------
    total drift:                                   -0.000000      0.000000      0.000000


  FREE ENERGIE OF THE ION-ELECTRON SYSTEM (eV)
  ---------------------------------------------------
  free  energy   TOTEN  =             -35.43465999 eV

  energy  without entropy=            -35.43465999  energy(sigma->0) =            -35.43465999

 ------------------------------------------------------------------------------------------------------

 reached required accuracy - stopping structural energy minimisation


 General timing and accounting informations for this job:
 ========================================================

                  Total CPU time used (sec):        6.416
                         Elapsed time (sec):        1.496

                   Maximum memory used (kb):          N/A
                   Average memory used (kb):          N/A
