h-BN hexagonal (primitive cell, AA' stacking)
1.0
   2.5040  0.0000  0.0000
  -1.2520  2.1687  0.0000
   0.0000  0.0000  6.6612
B N
2 2
Direct
  0.33333333  0.66666667  0.25000000
  0.66666667  0.33333333  0.75000000
  0.66666667  0.33333333  0.25000000
  0.33333333  0.66666667  0.75000000
