<?xml version='1.0' encoding='utf-8'?>
<modeling>
 <generator>
  <i name="program" type="string">vasp </i>
  <i name="version" type="string">mace-ase  </i>
  <i name="platform" type="string">mace-ase</i>
  <i name="date" type="string">2026 06 30</i>
  <i name="time" type="string">14:34:59</i>
 </generator>
 <incar>
  <i name="NSW" type="int">   100</i>
  <i name="ISIF" type="int">   3</i>
  <i name="EDIFFG">      -0.01000000</i>
  <i name="IVDW" type="int">   12</i>
 </incar>
 <parameters>
  <separator name="electronic">
   <i type="int" name="NELM">   60</i>
   <i type="logical" name="LCHIMAG"> F  </i>
   <i name="EDIFF">      0.00010000</i>
  </separator>
  <separator name="ionic">
   <i type="int" name="NSW">   100</i>
   <i type="int" name="IBRION">   -1</i>
   <i type="int" name="ISIF">   3</i>
   <i name="EDIFFG">      -0.01000000</i>
   <i type="int" name="LORBIT">   0</i>
  </separator>
 </parameters>
 <atominfo>
  <atoms>      4 </atoms>
  <types>      2 </types>
  <array name="atoms">
   <dimension dim="1">ion</dimension>
   <field type="string">element</field>
   <field type="int">atomtype</field>
   <set>
    <rc>
     <c>B</c>
     <c>   1</c>
    </rc>
    <rc>
     <c>B</c>
     <c>   1</c>
    </rc>
    <rc>
     <c>N</c>
     <c>   2</c>
    </rc>
    <rc>
     <c>N</c>
     <c>   2</c>
    </rc>
   </set>
  </array>
  <array name="atomtypes">
   <dimension dim="1">type</dimension>
   <field type="int">atomspertype</field>
   <field type="string">element</field>
   <field>mass</field>
   <field>valence</field>
   <field type="string">pseudopotential</field>
   <set>
    <rc>
     <c>      2</c>
     <c>B</c>
     <c>       10.81000000</c>
     <c>       0.00000000</c>
     <c>  PAW_PBE B (MACE)                    </c>
    </rc>
    <rc>
     <c>      2</c>
     <c>N</c>
     <c>       14.00700000</c>
     <c>       0.00000000</c>
     <c>  PAW_PBE N (MACE)                    </c>
    </rc>
   </set>
  </array>
 </atominfo>
 <structure name="initialpos">
  <crystal>
   <varray name="basis">
    <v>        2.50430677       0.00000000       0.00000000 </v>
    <v>       -1.25215339       2.16894931       0.00000000 </v>
    <v>        0.00000000       0.00000000       6.66301124 </v>
   </varray>
   <i name="volume">       36.19157435 </i>
   <varray name="rec_basis">
    <v>        0.39931210       0.23052636      -0.00000000 </v>
    <v>       -0.00000000       0.46105273      -0.00000000 </v>
    <v>       -0.00000000      -0.00000000       0.15008229 </v>
   </varray>
  </crystal>
  <varray name="positions">
   <v>        0.33333551       0.66667102       0.25000000 </v>
   <v>        0.66666449       0.33332898       0.75000000 </v>
   <v>        0.66666446       0.33332891       0.25000000 </v>
   <v>        0.33333554       0.66667109       0.75000000 </v>
  </varray>
 </structure>
 <calculation>
  <scstep>
   <energy>
    <i name="e_fr_energy">          -35.42975381 </i>
    <i name="e_wo_entrp">          -35.42975381 </i>
    <i name="e_0_energy">          -35.42975381 </i>
   </energy>
  </scstep>
  <structure>
   <crystal>
    <varray name="basis">
     <v>        2.50430677       0.00000000       0.00000000 </v>
     <v>       -1.25215339       2.16894931       0.00000000 </v>
     <v>        0.00000000       0.00000000       6.66301124 </v>
    </varray>
    <i name="volume">       36.19157435 </i>
    <varray name="rec_basis">
     <v>        0.39931210       0.23052636      -0.00000000 </v>
     <v>       -0.00000000       0.46105273      -0.00000000 </v>
     <v>       -0.00000000      -0.00000000       0.15008229 </v>
    </varray>
   </crystal>
   <varray name="positions">
    <v>        0.33333551       0.66667102       0.25000000 </v>
    <v>        0.66666449       0.33332898       0.75000000 </v>
    <v>        0.66666446       0.33332891       0.25000000 </v>
    <v>        0.33333554       0.66667109       0.75000000 </v>
   </varray>
  </structure>
  <varray name="forces">
   <v>        0.00000018       0.00013673      -0.00000000 </v>
   <v>       -0.00000018      -0.00013673      -0.00000000 </v>
   <v>       -0.00000018      -0.00014355       0.00000000 </v>
   <v>        0.00000018       0.00014355      -0.00000000 </v>
  </varray>
  <varray name="stress">
   <v>        5.00945547       0.00000393       0.00000000 </v>
   <v>        0.00000393       4.69870751      -0.00000000 </v>
   <v>        0.00000000      -0.00000000      13.36563791 </v>
  </varray>
  <energy>
   <i name="e_fr_energy">          -35.42975381 </i>
   <i name="e_wo_entrp">          -35.42975381 </i>
   <i name="e_0_energy">          -35.42975381 </i>
  </energy>
 </calculation>
 <calculation>
  <scstep>
   <energy>
    <i name="e_fr_energy">          -35.43088537 </i>
    <i name="e_wo_entrp">          -35.43088537 </i>
    <i name="e_0_energy">          -35.43088537 </i>
   </energy>
  </scstep>
  <structure>
   <crystal>
    <varray name="basis">
     <v>        2.50947195       0.00000001       0.00000000 </v>
     <v>       -1.25473597       2.17314554      -0.00000000 </v>
     <v>        0.00000000      -0.00000000       6.69898278 </v>
    </varray>
    <i name="volume">       36.53255286 </i>
    <varray name="rec_basis">
     <v>        0.39849021       0.23008123      -0.00000000 </v>
     <v>       -0.00000000       0.46016246       0.00000000 </v>
     <v>       -0.00000000       0.00000000       0.14927640 </v>
    </varray>
   </crystal>
   <varray name="positions">
    <v>        0.33334777       0.66669550       0.25000000 </v>
    <v>        0.66665223       0.33330450       0.75000000 </v>
    <v>        0.66665172       0.33330349       0.25000000 </v>
    <v>        0.33334828       0.66669651       0.75000000 </v>
   </varray>
  </structure>
  <varray name="forces">
   <v>       -0.00000284      -0.00346163      -0.00000000 </v>
   <v>        0.00000284       0.00346163       0.00000000 </v>
   <v>        0.00000286       0.00348679      -0.00000000 </v>
   <v>       -0.00000286      -0.00348679       0.00000000 </v>
  </varray>
  <varray name="stress">
   <v>      -12.47479392      -0.00009454      -0.00000000 </v>
   <v>       -0.00009454     -12.03823364      -0.00000000 </v>
   <v>       -0.00000000      -0.00000000      11.00511367 </v>
  </varray>
  <energy>
   <i name="e_fr_energy">          -35.43088537 </i>
   <i name="e_wo_entrp">          -35.43088537 </i>
   <i name="e_0_energy">          -35.43088537 </i>
  </energy>
 </calculation>
 <calculation>
  <scstep>
   <energy>
    <i name="e_fr_energy">          -35.43110585 </i>
    <i name="e_wo_entrp">          -35.43110585 </i>
    <i name="e_0_energy">          -35.43110585 </i>
   </energy>
  </scstep>
  <structure>
   <crystal>
    <varray name="basis">
     <v>        2.50999914       0.00000000       0.00000000 </v>
     <v>       -1.25499957       2.17355722      -0.00000000 </v>
     <v>        0.00000000      -0.00000000       6.70864892 </v>
    </varray>
    <i name="volume">       36.59988465 </i>
    <varray name="rec_basis">
     <v>        0.39840651       0.23003765      -0.00000000 </v>
     <v>       -0.00000000       0.46007530       0.00000000 </v>
     <v>       -0.00000000       0.00000000       0.14906131 </v>
    </varray>
   </crystal>
   <varray name="positions">
    <v>        0.33334075       0.66668146       0.25000000 </v>
    <v>        0.66665925       0.33331854       0.75000000 </v>
    <v>        0.66665872       0.33331747       0.25000000 </v>
    <v>        0.33334128       0.66668253       0.75000000 </v>
   </varray>
  </structure>
  <varray name="forces">
   <v>       -0.00000183      -0.00217633      -0.00000000 </v>
   <v>        0.00000183       0.00217633       0.00000000 </v>
   <v>        0.00000184       0.00219645      -0.00000000 </v>
   <v>       -0.00000184      -0.00219645       0.00000000 </v>
  </varray>
  <varray name="stress">
   <v>      -14.13974527      -0.00005949      -0.00000000 </v>
   <v>       -0.00005949     -13.69492458       0.00000000 </v>
   <v>       -0.00000000       0.00000000      10.39692373 </v>
  </varray>
  <energy>
   <i name="e_fr_energy">          -35.43110585 </i>
   <i name="e_wo_entrp">          -35.43110585 </i>
   <i name="e_0_energy">          -35.43110585 </i>
  </energy>
 </calculation>
 <calculation>
  <scstep>
   <energy>
    <i name="e_fr_energy">          -35.43281705 </i>
    <i name="e_wo_entrp">          -35.43281705 </i>
    <i name="e_0_energy">          -35.43281705 </i>
   </energy>
  </scstep>
  <structure>
   <crystal>
    <varray name="basis">
     <v>        2.51171667      -0.00000002       0.00000000 </v>
     <v>       -1.25585835       2.17473991       0.00000000 </v>
     <v>        0.00000000       0.00000000       6.78987044 </v>
    </varray>
    <i name="volume">       37.08851615 </i>
    <varray name="rec_basis">
     <v>        0.39813408       0.22991255      -0.00000000 </v>
     <v>        0.00000000       0.45982510      -0.00000000 </v>
     <v>       -0.00000000      -0.00000000       0.14727822 </v>
    </varray>
   </crystal>
   <varray name="positions">
    <v>        0.33328677       0.66657363       0.25000000 </v>
    <v>        0.66671323       0.33342637       0.75000000 </v>
    <v>        0.66671255       0.33342501       0.25000000 </v>
    <v>        0.33328745       0.66657499       0.75000000 </v>
   </varray>
  </structure>
  <varray name="forces">
   <v>        0.00000603       0.00771235      -0.00000000 </v>
   <v>       -0.00000603      -0.00771235       0.00000000 </v>
   <v>       -0.00000607      -0.00773643      -0.00000000 </v>
   <v>        0.00000607       0.00773643       0.00000000 </v>
  </varray>
  <varray name="stress">
   <v>      -18.97712719       0.00020446      -0.00000000 </v>
   <v>        0.00020446     -18.53867352      -0.00000000 </v>
   <v>       -0.00000000      -0.00000000       5.49885943 </v>
  </varray>
  <energy>
   <i name="e_fr_energy">          -35.43281705 </i>
   <i name="e_wo_entrp">          -35.43281705 </i>
   <i name="e_0_energy">          -35.43281705 </i>
  </energy>
 </calculation>
 <calculation>
  <scstep>
   <energy>
    <i name="e_fr_energy">          -35.43396979 </i>
    <i name="e_wo_entrp">          -35.43396979 </i>
    <i name="e_0_energy">          -35.43396979 </i>
   </energy>
  </scstep>
  <structure>
   <crystal>
    <varray name="basis">
     <v>        2.51060955      -0.00000003       0.00000000 </v>
     <v>       -1.25530480       2.17360526       0.00000000 </v>
     <v>        0.00000000       0.00000000       6.85531400 </v>
    </varray>
    <i name="volume">       37.40995636 </i>
    <varray name="rec_basis">
     <v>        0.39830965       0.23003257      -0.00000000 </v>
     <v>        0.00000000       0.46006514      -0.00000000 </v>
     <v>       -0.00000000      -0.00000000       0.14587224 </v>
    </varray>
   </crystal>
   <varray name="positions">
    <v>        0.33326679       0.66653372       0.25000000 </v>
    <v>        0.66673321       0.33346628       0.75000000 </v>
    <v>        0.66673243       0.33346472       0.25000000 </v>
    <v>        0.33326757       0.66653528       0.75000000 </v>
   </varray>
  </structure>
  <varray name="forces">
   <v>        0.00000871       0.01110782      -0.00000000 </v>
   <v>       -0.00000871      -0.01110782       0.00000000 </v>
   <v>       -0.00000878      -0.01114412      -0.00000000 </v>
   <v>        0.00000878       0.01114412       0.00000000 </v>
  </varray>
  <varray name="stress">
   <v>      -14.84881574       0.00029398       0.00000000 </v>
   <v>        0.00029398     -14.28743135       0.00000000 </v>
   <v>        0.00000000       0.00000000       1.72944426 </v>
  </varray>
  <energy>
   <i name="e_fr_energy">          -35.43396979 </i>
   <i name="e_wo_entrp">          -35.43396979 </i>
   <i name="e_0_energy">          -35.43396979 </i>
  </energy>
 </calculation>
 <calculation>
  <scstep>
   <energy>
    <i name="e_fr_energy">          -35.43458141 </i>
    <i name="e_wo_entrp">          -35.43458141 </i>
    <i name="e_0_energy">          -35.43458141 </i>
   </energy>
  </scstep>
  <structure>
   <crystal>
    <varray name="basis">
     <v>        2.50773675      -0.00000002       0.00000000 </v>
     <v>       -1.25386839       2.17109716       0.00000000 </v>
     <v>        0.00000000       0.00000000       6.89374948 </v>
    </varray>
    <i name="volume">       37.53329550 </i>
    <varray name="rec_basis">
     <v>        0.39876594       0.23029831      -0.00000000 </v>
     <v>        0.00000000       0.46059662      -0.00000000 </v>
     <v>       -0.00000000      -0.00000000       0.14505894 </v>
    </varray>
   </crystal>
   <varray name="positions">
    <v>        0.33328682       0.66657372       0.25000000 </v>
    <v>        0.66671318       0.33342628       0.75000000 </v>
    <v>        0.66671234       0.33342459       0.25000000 </v>
    <v>        0.33328766       0.66657541       0.75000000 </v>
   </varray>
  </structure>
  <varray name="forces">
   <v>        0.00000536       0.00697615      -0.00000000 </v>
   <v>       -0.00000536      -0.00697615       0.00000000 </v>
   <v>       -0.00000539      -0.00698256      -0.00000000 </v>
   <v>        0.00000539       0.00698256       0.00000000 </v>
  </varray>
  <varray name="stress">
   <v>       -5.46952440       0.00018523       0.00000000 </v>
   <v>        0.00018523      -4.64124765       0.00000000 </v>
   <v>        0.00000000       0.00000000      -0.46902945 </v>
  </varray>
  <energy>
   <i name="e_fr_energy">          -35.43458141 </i>
   <i name="e_wo_entrp">          -35.43458141 </i>
   <i name="e_0_energy">          -35.43458141 </i>
  </energy>
 </calculation>
 <calculation>
  <scstep>
   <energy>
    <i name="e_fr_energy">          -35.43465999 </i>
    <i name="e_wo_entrp">          -35.43465999 </i>
    <i name="e_0_energy">          -35.43465999 </i>
   </energy>
  </scstep>
  <structure>
   <crystal>
    <varray name="basis">
     <v>        2.50636578      -0.00000001       0.00000000 </v>
     <v>       -1.25318289       2.17000088       0.00000000 </v>
     <v>        0.00000000       0.00000000       6.89095965 </v>
    </varray>
    <i name="volume">       37.47866117 </i>
    <varray name="rec_basis">
     <v>        0.39898406       0.23041465      -0.00000000 </v>
     <v>        0.00000000       0.46082931      -0.00000000 </v>
     <v>       -0.00000000      -0.00000000       0.14511767 </v>
    </varray>
   </crystal>
   <varray name="positions">
    <v>        0.33331183       0.66662369       0.25000000 </v>
    <v>        0.66668817       0.33337631       0.75000000 </v>
    <v>        0.66668739       0.33337475       0.25000000 </v>
    <v>        0.33331261       0.66662525       0.75000000 </v>
   </varray>
  </structure>
  <varray name="forces">
   <v>        0.00000153       0.00220303      -0.00000000 </v>
   <v>       -0.00000153      -0.00220303       0.00000000 </v>
   <v>       -0.00000154      -0.00218339      -0.00000000 </v>
   <v>        0.00000154       0.00218339       0.00000000 </v>
  </varray>
  <varray name="stress">
   <v>       -1.19034619       0.00005733       0.00000000 </v>
   <v>        0.00005733      -0.25185132       0.00000000 </v>
   <v>        0.00000000       0.00000000      -0.31293679 </v>
  </varray>
  <energy>
   <i name="e_fr_energy">          -35.43465999 </i>
   <i name="e_wo_entrp">          -35.43465999 </i>
   <i name="e_0_energy">          -35.43465999 </i>
  </energy>
 </calculation>
 <structure name="finalpos">
  <crystal>
   <varray name="basis">
    <v>        2.50636578      -0.00000001       0.00000000 </v>
    <v>       -1.25318289       2.17000088       0.00000000 </v>
    <v>        0.00000000       0.00000000       6.89095965 </v>
   </varray>
   <i name="volume">       37.47866117 </i>
   <varray name="rec_basis">
    <v>        0.39898406       0.23041465      -0.00000000 </v>
    <v>        0.00000000       0.46082931      -0.00000000 </v>
    <v>       -0.00000000      -0.00000000       0.14511767 </v>
   </varray>
  </crystal>
  <varray name="positions">
   <v>        0.33331183       0.66662369       0.25000000 </v>
   <v>        0.66668817       0.33337631       0.75000000 </v>
   <v>        0.66668739       0.33337475       0.25000000 </v>
   <v>        0.33331261       0.66662525       0.75000000 </v>
  </varray>
 </structure>
</modeling>