B2N2
   1.00000000
   2.504306773   0.000000001   0.000000000
  -1.252153386   2.168949307   0.000000000
   0.000000000   0.000000000   6.663011235
  B  N
  2  2
Direct configuration=     1
   0.333335508   0.666671020   0.250000000
   0.666664492   0.333328980   0.750000000
   0.666664458   0.333328913   0.250000000
   0.333335542   0.666671087   0.750000000
B2N2
   1.00000000
   2.509471954   0.000000006   0.000000000
  -1.254735972   2.173145541  -0.000000000
   0.000000000  -0.000000000   6.698982777
  B  N
  2  2
Direct configuration=     2
   0.333347774   0.666695502   0.250000000
   0.666652226   0.333304498   0.750000000
   0.666651721   0.333303490   0.250000000
   0.333348279   0.666696510   0.750000000
B2N2
   1.00000000
   2.509999144   0.000000003   0.000000000
  -1.254999569   2.173557221  -0.000000000
   0.000000000  -0.000000000   6.708648923
  B  N
  2  2
Direct configuration=     3
   0.333340746   0.666681462   0.250000000
   0.666659254   0.333318538   0.750000000
   0.666658719   0.333317468   0.250000000
   0.333341281   0.666682532   0.750000000
B2N2
   1.00000000
   2.511716672  -0.000000019   0.000000000
  -1.255858352   2.174739909   0.000000000
   0.000000000   0.000000000   6.789870442
  B  N
  2  2
Direct configuration=     4
   0.333286766   0.666573632   0.250000000
   0.666713234   0.333426368   0.750000000
   0.666712555   0.333425009   0.250000000
   0.333287445   0.666574991   0.750000000
B2N2
   1.00000000
   2.510609553  -0.000000027   0.000000000
  -1.255304800   2.173605256   0.000000000
   0.000000000   0.000000000   6.855313996
  B  N
  2  2
Direct configuration=     5
   0.333266785   0.666533715   0.250000000
   0.666733215   0.333466285   0.750000000
   0.666732432   0.333464718   0.250000000
   0.333267568   0.666535282   0.750000000
B2N2
   1.00000000
   2.507736746  -0.000000018   0.000000000
  -1.253868389   2.171097161   0.000000000
   0.000000000   0.000000000   6.893749476
  B  N
  2  2
Direct configuration=     6
   0.333286818   0.666573724   0.250000000
   0.666713182   0.333426276   0.750000000
   0.666712339   0.333424588   0.250000000
   0.333287661   0.666575412   0.750000000
B2N2
   1.00000000
   2.506365776  -0.000000008   0.000000000
  -1.253182895   2.170000883   0.000000000
   0.000000000   0.000000000   6.890959652
  B  N
  2  2
Direct configuration=     7
   0.333311830   0.666623686   0.250000000
   0.666688170   0.333376314   0.750000000
   0.666687386   0.333374748   0.250000000
   0.333312614   0.666625252   0.750000000
