Cs Pb I  C  H  N 
 1.0000000000000000
    25.1600000000000001    0.0000000000000000    0.0000000000000000
     0.0000000000000000   25.1600000000000001    0.0000000000000000
     0.0000000000000000    0.0000000000000000   25.1600000000000001
 Cs  Pb  I   C   H   N  
  63  64 192   1   6   1
Direct
  0.0060850787119064  0.0005454059544118  0.2389753700718694
 -0.0024929608203815 -0.0044217152312394  0.4963424358683773
  0.0005228333681361  0.0016076704914119  0.7463539569169699
 -0.0020074640448577  0.2454809568024358  0.0039860138440141
  0.0149053567784113  0.2559872943534311  0.2533644368664554
 -0.0137931236980640  0.2642109657468326  0.5064650903594602
 -0.0088686063429411  0.2473081993653040  0.7453358589401696
  0.0005452848923954  0.4983617681304388 -0.0039024588157445
 -0.0021414892788192  0.5089469537904986  0.2502441466554124
 -0.0119079199397893  0.4988834738379221  0.4972146373400197
 -0.0034327388807185  0.5032854674094275  0.7483250079275962
 -0.0061687679189337  0.7494570567747733  0.0009109698270188
  0.0013320878092398  0.7591918873475125  0.2392134373019640
  0.0103928002451026  0.7502883472670450  0.5034164283969114
 -0.0057752251742592  0.7485074337077924  0.7416072553137423
  0.2538040113228907  0.0021536178735662 -0.0108538876141644
  0.2588349290997182  0.0070822842461808  0.2504024345705861
  0.2530878330619943  0.0042904439176957  0.5129733952475251
  0.2419045737171336  0.0031330176659712  0.7536646303938390
  0.2512314677918235  0.2427834038749838 -0.0093647996084026
  0.2543833916567902  0.2484951973882508  0.2397692596547994
  0.2699263906527996  0.2471288172254266  0.5020956098778436
  0.2536432324439785  0.2486689796267082  0.7428970435525020
  0.2472666568264731  0.5014992638903630  0.0009856032783837
  0.2615241560807555  0.4889760081102933  0.2371520450869442
  0.2365598690663180  0.5128965609506169  0.5066967748689859
  0.2441650979349494  0.4930580168038958  0.7444794058940631
  0.2485007477571901  0.7483747848693746 -0.0002289178076896
  0.2441581472696671  0.7369463052625598  0.2409270384742079
  0.2643378777070101  0.7476886902252476  0.5047741104598796
  0.2449622969883025  0.7478973969647513  0.7634576153314852
  0.5029628333381310 -0.0083510923069211 -0.0057486387824634
  0.4945788766928405  0.0006491453764123  0.2451339944625413
  0.4947584841692634  0.0020440435205508  0.4929983477585116
  0.4952744616187697  0.0106268442337693  0.7466866244360518
  0.4858609911813905  0.2446720747649596 -0.0063057527012940
  0.4977081792721064  0.2537090397939422  0.2484243739703949
  0.5043664924457469  0.2518101030120102  0.4951327350102947
  0.4923144424681121  0.2563574751912898  0.7462388738712011
  0.5052441062276737  0.4927749121519963 -0.0042075519490662
  0.4990724101507367  0.4946258395012236  0.2463334144984219
  0.4933077326407464  0.5122147563147795  0.5090859578328327
  0.4905747640902585  0.4917304619178932  0.7521189653923732
  0.4948968782499499  0.7399379274536575  0.0083448224464323
  0.5099102390971910  0.7449572325132311  0.2542954008895546
  0.4902540858150530  0.7498103371740708  0.4950822433354115
  0.5003027332171598  0.7483628103510871  0.7534220304696748
  0.7554583854067093 -0.0019579510499002 -0.0057690328145382
  0.7396143669372295 -0.0002222896759043  0.2532426981682280
  0.7595365936993578  0.0006356554063657  0.4955248522175599
  0.7562812014293472  0.0018697524845697  0.7573786061599282
  0.7458430371293946  0.2437645569865861  0.0024580878697246
  0.7502792263415822  0.2526958560030256  0.2445548727065676
  0.7273130359823778  0.2504929354373809  0.5049904738418093
  0.7596305314024944  0.2451431187155318  0.7525022018418197
  0.7535980503439512  0.4948896594877779  0.0103489589493346
  0.7621194095904713  0.4972809921878715  0.2509856300649135
  0.7538090183023426  0.4916485310566304  0.4995432170252972
  0.7483558263614430  0.4978575671363863  0.7470198376726365
  0.7401157277107954  0.7420976007673532  0.0008331992399482
  0.7500652426565086  0.7584785826197830  0.2607820363528677
  0.7447447212111700  0.7508040057231921  0.5017159991382074
  0.7479295424280985  0.7482215967494620  0.7491921798803955
  0.1254407823671840  0.1215716342128233  0.1237763110068083
  0.1343192541521071  0.1297305670488345  0.3742873621094162
  0.1199700293972839  0.1227879189015379  0.6223345892951733
  0.1192957165572722  0.1335412436860856  0.8805790795238789
  0.1264283273646830  0.3666609130408914  0.1206762210775059
  0.1248803313083273  0.3819321720233038  0.3811736560209622
  0.1259790616245350  0.3797318499540333  0.6388128768573024
  0.1228021552282480  0.3687185776863084  0.8699817790061651
  0.1276950684755534  0.6171353408662806  0.1311127864882314
  0.1208696361528399  0.6260179268713031  0.3816950070091223
  0.1241741544005812  0.6353925842339316  0.6353156680437163
  0.1222461131117938  0.6201058081899522  0.8779125601042516
  0.1221619828308440  0.8665064454561849  0.1316158781580536
  0.1323784134949263  0.8702019600498171  0.3744302513898547
  0.1231449045041085  0.8768225809807489  0.6255831510347549
  0.1216220519041562  0.8684732166941564  0.8780521619438449
  0.3761399428765638  0.1200131075792436  0.1272564893919544
  0.3732001631124137  0.1224552321988058  0.3796855333606942
  0.3716289714130194  0.1305100033865101  0.6219502837654414
  0.3794803470930292  0.1221833302260957  0.8725300157383470
  0.3681312865053825  0.3779797380177900  0.1242870302411424
  0.3704570687108393  0.3768166174416384  0.3655919053417664
  0.3794785829007122  0.3737836697598220  0.6151263556499696
  0.3720973360072023  0.3761524105226830  0.8841918113080124
  0.3730077677408308  0.6297801936994726  0.1282960970806390
  0.3730172722384018  0.6200978227876156  0.3633673534869332
  0.3704745438451337  0.6282359952107504  0.6236957245508105
  0.3729841433659425  0.6282893513221190  0.8755956169600351
  0.3771389721896913  0.8677397854009992  0.1251346793885242
  0.3817793429857853  0.8718484673516430  0.3733721557224228
  0.3738645139373591  0.8762248256972027  0.6271630593060414
  0.3743031586820795  0.8773891584641513  0.8731735429295386
  0.6268580625522080  0.1225595301973957  0.1278046677556018
  0.6221987821536215  0.1237992963108413  0.3705332662179537
  0.6230109339665723  0.1283551896106994  0.6275253209038726
  0.6306171218749475  0.1225677827798272  0.8807307558892131
  0.6201442127941863  0.3739416780842254  0.1252995356813442
  0.6316740623150230  0.3768742886480762  0.3743357720788527
  0.6211481406018139  0.3759380341621553  0.6333171050880767
  0.6230740666819685  0.3725885016139622  0.8790729627410082
  0.6282344188710730  0.6293030634903879  0.1244569121580690
  0.6208736718289195  0.6237621681748529  0.3781060346158701
  0.6203243966167795  0.6287923728386443  0.6271297429610433
  0.6215914196617175  0.6190702333897504  0.8665876320822641
  0.6210294408655881  0.8791324219327437  0.1288082859573439
  0.6229103871906646  0.8718658964503709  0.3804239902163242
  0.6301969789797170  0.8751092137669937  0.6264258821342856
  0.6315782837440632  0.8700091090864673  0.8683529985326771
  0.8804332837433132  0.1264829624535580  0.1302787741555990
  0.8759173150196212  0.1277284737245995  0.3809684515133475
  0.8754933306337858  0.1177578658518733  0.6270632239713172
  0.8678641124034521  0.1255610996841071  0.8773552886467351
  0.8740544414046478  0.3791845819719149  0.1273292841988474
  0.8733225886529056  0.3739428805236529  0.3764668561175085
  0.8718904021067048  0.3682665985896683  0.6274501618947518
  0.8775346432430149  0.3803357585509620  0.8741313180789079
  0.8728368222602021  0.6225920276252421  0.1284600796218293
  0.8714134362900020  0.6273203843392872  0.3796022173425536
  0.8850099055283298  0.6260074921058371  0.6251798770853714
  0.8747503038437779  0.6301219700607159  0.8727055549764173
  0.8770185389505020  0.8736055667660464  0.1219162516022144
  0.8763516309440765  0.8826236346628489  0.3691952436141728
  0.8742901100716683  0.8756741407569991  0.6258677476968421
  0.8792833638666335  0.8762076338643064  0.8699824788403587
  0.1171326756067642  0.1226585761858355 -0.0037858198131880
  0.1177955226251505  0.1277639675966606  0.2445306103475348
  0.1280075272302099  0.1393930963699193  0.4942951474861275
  0.1289575983531773  0.1207003672532713  0.7427308717330384
  0.1324202242448269  0.3648083843618644 -0.0020505299924369
  0.1165135636216146  0.3595398281476658  0.2479539954084751
  0.1344953739410502  0.3822980232358810  0.5039407646487118
  0.1266757093797586  0.3846152542439867  0.7551321613025733
  0.1272277433178445  0.6256148305325978  0.0100014574437334
  0.1276582278443135  0.6271409418515308  0.2555792247882901
  0.1197829582143805  0.6240610093572175  0.4972038746173938
  0.1286513647860951  0.6166138019183576  0.7541675433028285
  0.1182034342280050  0.8808984226181965  0.0062818363610797
  0.1166824535136577  0.8855674284349999  0.2524258955491260
  0.1268281493270058  0.8804617350119959  0.4962220314553006
  0.1385102390182015  0.8777057909685261  0.7468810142764745
  0.3861282662674255  0.1295481106904238 -0.0018122390818826
  0.3670591870820250  0.1331911615295990  0.2524441301001463
  0.3686155094248647  0.1349099273858517  0.4991049268037884
  0.3758623037176622  0.1139148187363221  0.7489779500672638
  0.3625845931626361  0.3689874205863046  0.0044462194708032
  0.3821221234435330  0.3734778951011647  0.2474044516399357
  0.3788651256938802  0.3790111584049841  0.4973993237109822
  0.3788112879845117  0.3708353546882485  0.7604600521513808
  0.3752294369960362  0.6206882001532700  0.0070752017427468
  0.3754385029681914  0.6235910816492435  0.2447414799015054
  0.3717009722144836  0.6261997320613716  0.5013393673819821
  0.3651738316987144  0.6175046766011191  0.7510897813978223
  0.3754103860260885  0.8725352226369019  0.0052958118768891
  0.3698834050338616  0.8745616966206406  0.2509609627478004
  0.3667332378571778  0.8838705720685808  0.5021282894491418
  0.3773402961133472  0.8805759335263725  0.7490360265630536
  0.6267729490778847  0.1336122031936953  0.0092543282445955
  0.6285928657386122  0.1268304945687221  0.2550207884615792
  0.6243715648723812  0.1267969222360247  0.4985424901767089
  0.6181678430193078  0.1271470147669067  0.7552469281461891
  0.6192280869106047  0.3621095799009159  0.0027478520810832
  0.6246328685893243  0.3753621652281328  0.2570768792394388
  0.6225341568408661  0.3720054078372541  0.5003721166490690
  0.6204677248249133  0.3744941545012411  0.7597094664538507
  0.6269923300111896  0.6305496006238925 -0.0132320858121279
  0.6173208055060883  0.6252287259370174  0.2428591405291383
  0.6304513451087422  0.6266634811441691  0.4995425595655377
  0.6288768669811050  0.6258978599663129  0.7460450689732918
  0.6236684141065050  0.8671464708221707 -0.0047362657977483
  0.6264531075079367  0.8592459047416598  0.2569421075630561
  0.6343710700430041  0.8690150471703145  0.5027441123692731
  0.6257659254323478  0.8738126971553773  0.7443945120476448
  0.8724865689008627  0.1286919208855321 -0.0055307004332941
  0.8771966182768952  0.1283837929369614  0.2542187119545906
  0.8699192590895335  0.1328836416860358  0.4985843207335582
  0.8777123006270127  0.1239348033991454  0.7469186800193670
  0.8708462624692063  0.3686270978704578  0.0067741446618656
  0.8664879947880937  0.3823608437416559  0.2506228374183842
  0.8744337431181188  0.3687056187814621  0.4985727935136551
  0.8816500830795749  0.3778358668707819  0.7539169359627242
  0.8648416971841698  0.6129800622883914 -0.0022620872843069
  0.8752676724137034  0.6331559985914822  0.2491897834607982
  0.8734698563731123  0.6195734211954104  0.5011152521702857
  0.8750819711445101  0.6198679049064137  0.7428123447625803
  0.8818499737591238  0.8859377968808434  0.0005304109389218
  0.8726266936835458  0.8627491150720010  0.2503987035659088
  0.8768840063376155  0.8903728713216652  0.4989274817326925
  0.8758875381933200  0.8789406502474272  0.7536138206522339
  0.1322221701197921 -0.0032512907857507  0.1279235811677908
  0.1345551465378113  0.0026336992957828  0.3796190567177898
  0.1316444418175518 -0.0059711473673965  0.6311321648105932
  0.1221993097269838 -0.0040222486119747  0.8663225563080583
  0.1159203935180742  0.2483582994320371  0.1341439773913522
  0.1250085253457706  0.2543848262135930  0.3769100517075037
  0.1278193118951639  0.2468952406034676  0.6277766860950154
  0.1327706144835617  0.2484415023186147  0.8709098313238320
  0.1326342252148467  0.4927038310937722  0.1197241246809341
  0.1335672101595879  0.5033845009333690  0.3596712026103565
  0.1250620648855409  0.4980441055851506  0.6195211909642858
  0.1276088199075789  0.5016921742629555  0.8753232152238098
  0.1302436377820942  0.7506818032459052  0.1273603924132814
  0.1266945214740287  0.7492318467556204  0.3645783339411783
  0.1392442805837204  0.7506617609997961  0.6331186770660775
  0.1304799779644026  0.7478439520452141  0.8843700721910714
  0.3826871296470160 -0.0002740442332522  0.1379017872741098
  0.3812128121909931 -0.0009077618767705  0.3735656851760794
  0.3734645511896352  0.0012490657374082  0.6255478233462275
  0.3737478931319692 -0.0011525441633526  0.8660203168312317
  0.3728220677196705  0.2533228888056442  0.1294181036619432
  0.3783438168044079  0.2545714339365183  0.3654757385642142
  0.3636907186388850  0.2521613003329455  0.6293368141412344
  0.3793753966521821  0.2429105443345411  0.8806578011115693
  0.3794608141286103  0.4993988566016127  0.1255084292476077
  0.3920681961896389  0.4991397745823099  0.3670193882719012
  0.3655730958214800  0.5054642480992074  0.6287104544480770
  0.3826495133233841  0.5037920139804936  0.8710215799300773
  0.3772452936120900  0.7525738429840026  0.1026638293078696
  0.3897829081757609  0.7406230960024798  0.3681630436048355
  0.3791221988494511  0.7532170301816893  0.6172124702166099
  0.3654360572698249  0.7529825585763309  0.8828102751653299
  0.6152263173055846  0.0085282049587644  0.1290099334010858
  0.6343896253253913  0.0047037846688129  0.3841676530904253
  0.6139512779015505  0.0021746780521235  0.6323744025773902
  0.6289894947830406  0.0002884883726794  0.8629832865861339
  0.6385746620663740  0.2513888695158171  0.1358511252841528
  0.6359716110205196  0.2576051538572284  0.3682914086317598
  0.6144918376677524  0.2495747815407297  0.6220822850956372
  0.6391918822644079  0.2598061916455058  0.8846068198825344
  0.6338411665536189  0.5038347097168796  0.1227844149963295
  0.6166619715858322  0.5024125271767289  0.3784587704461011
  0.6171292857170477  0.5018713804863046  0.6181405026896112
  0.6253126948382142  0.4971498864727076  0.8713459517124486
  0.6208843858535825  0.7561647664608152  0.1129702614280738
  0.6183975543732189  0.7480184587142974  0.3764068442953567
  0.6294506796104876  0.7478987593257438  0.6320382851180654
  0.6350366049677560  0.7492886482939751  0.8744329807342648
  0.8642044500362456 -0.0031415338870057  0.1298568161637993
  0.8722336034655505  0.0049624623856878  0.3849086663449852
  0.8762369478974061 -0.0015353413982440  0.6330617345273762
  0.8656675912049555  0.0063511211647745  0.8687574464195950
  0.8836361152755873  0.2486822572418488  0.1254622997831492
  0.8673748933541411  0.2556665967070886  0.3676017166313471
  0.8727151428051367  0.2543596890348038  0.6184524624931393
  0.8742492377100559  0.2528181612275733  0.8697407302476093
  0.8752607092178004  0.4947699881545470  0.1268609157905353
  0.8771618739390934  0.5013221001154570  0.3798100162100135
  0.8753079892367559  0.5007730589672459  0.6335500452979783
  0.8729596374303213  0.5015949692317115  0.8612556418105201
  0.8570040322512126  0.7522597382074204  0.1323962650007650
  0.8725905534959655  0.7563142839531778  0.3805650365181605
  0.8794489507637872  0.7511772973397185  0.6245960685113523
  0.8674896780652995  0.7528932899111196  0.8790933842197257
  0.0037237878847137  0.1414609711842728  0.1288364160494427
  0.0000591955983176  0.1309965868312889  0.3797316701683650
  0.0000189596291225  0.1256535945102859  0.6255566537339083
 -0.0020620405170806  0.1202110312874665  0.8668575938984810
 -0.0021146384064481  0.3766011162708313  0.1260098976368304
  0.0064028517758809  0.3858674909570535  0.3807583448173155
  0.0037864175859586  0.3751854189860018  0.6207464313033684
  0.0040740144614438  0.3689772612828377  0.8732515471160774
 -0.0096344619798805  0.6274406844875142  0.1240908623511681
 -0.0102035530935242  0.6188897975786201  0.3691779337406223
  0.0058049526475456  0.6285652836498602  0.6239737308012062
 -0.0063896025302201  0.6095216640224025  0.8894780486487828
  0.0007324511298813  0.8686591941572999  0.1384725221246494
 -0.0029441793346757  0.8815647851901934  0.3659332598667173
 -0.0022119565444510  0.8697720186349114  0.6196809034605344
 -0.0005481859825507  0.8962279969566239  0.8698995472066424
  0.2425244823039888  0.1309526722562148  0.1411910808103125
  0.2567298609832162  0.1072632292671022  0.3707974719473239
  0.2396854628584975  0.1310771432518287  0.6264688800202576
  0.2500094549109331  0.1217087029337764  0.8920125540835901
  0.2500301307506821  0.3773143827239846  0.1335372199416597
  0.2524241875061678  0.3766623072993672  0.3761547060978123
  0.2565613329811237  0.3746464496407203  0.6333247205531971
  0.2486099363174243  0.3749248882457054  0.8708973645270484
  0.2489634688515464  0.6317681542444655  0.1002196654014365
  0.2467659769863336  0.6258156554715819  0.3768640494464076
  0.2493679407624672  0.6305310794657131  0.6311954635106507
  0.2482324350682716  0.6274081181425342  0.8796355654392818
  0.2479789536804170  0.8596456687827571  0.1187293594052749
  0.2590914744517591  0.8725912851409684  0.3738946326059620
  0.2481258831653582  0.8818731273228136  0.6433121997553213
  0.2498568887477444  0.8806406999276204  0.8866322545015909
  0.4919843655771195  0.1288152304645963  0.1376336280691086
  0.4997547085409023  0.1247988169224218  0.3866408648922138
  0.4938646468316640  0.1204395645628245  0.6329749357361726
  0.5002568704081670  0.1266120407197601  0.8780784127832538
  0.4957880991085309  0.3815676365683258  0.1275684067154322
  0.4945559837100852  0.3758432750271468  0.3665930407029366
  0.5009715051001616  0.3682554724630542  0.6272484778347174
  0.5026469669954288  0.3790698207285443  0.8726561523097320
  0.5007977788285790  0.6255912285416380  0.1209285971602743
  0.5025537477601851  0.6263891420373847  0.3707931002844083
  0.4915394110055197  0.6277434756630446  0.6317587150991623
  0.5025107314035568  0.6216690162247724  0.8655982137474117
  0.4956339601619424  0.8686503628084118  0.1174959519569821
  0.5004406355009277  0.8733961154300056  0.3686984515481070
  0.5005582711604862  0.8572295464233165  0.6333117525889905
  0.4940440415689042  0.8871081804608585  0.8753249633466872
  0.7462084689632940  0.1155579863028783  0.1252521407812438
  0.7480884561189560  0.1280017330239513  0.3656059798281881
  0.7565299779322517  0.1302355355752338  0.6248984930848265
  0.7493752487409338  0.1148110060487048  0.8646662252239476
  0.7500535977568448  0.3758567511067386  0.1197934479760609
  0.7546046419363924  0.3766469955337030  0.3837438933099877
  0.7449162429914480  0.3669024669814892  0.6156397405973344
  0.7586228217699101  0.3716588799199894  0.8821095103359543
  0.7441626194792104  0.6224245302547855  0.1279817790267349
  0.7534162032304870  0.6282978642865695  0.3773529088864236
  0.7445331738907843  0.6179146985307201  0.6213719226334643
  0.7513911591979329  0.6233676415411559  0.8838657941918361
  0.7489668686002922  0.8750479462332753  0.1223961314734075
  0.7527096772356464  0.8720049640506357  0.3768805363305227
  0.7479104344046015  0.8905553119939583  0.6317805906887973
  0.7508468613832260  0.8874736062622980  0.8740992782979282
 -0.0297413985002877 -0.0146767199459367  0.0176868883119014
 -0.0301918481901161 -0.0340149238282643  0.0588650041030614
  0.9214825123442915 -0.0091297039491324  0.0026618319000577
 -0.0558285157765328  0.9296324292089972  0.0162131708950150
  0.0252333021156310  0.0096288943274362 -0.0385911547353789
  0.0257842566220605 -0.0543604946055078 -0.0185392004196012
  0.0600043033403673  0.9929652303709783  0.0182935624939221
  0.0264896037762491 -0.0130738757026953 -0.0046500617444173
Cartesian
  0.0018331628424837  0.0005427520273641 -0.0021470334553519
 -0.0009712418953902 -0.0002787010626522 -0.0005049416866483
 -0.0009868401347663  0.0010791892576632 -0.0013709769999042
 -0.0015275763771607 -0.0005591297179712  0.0007986194274745
  0.0034270770848294  0.0008207785384170  0.0011007909163756
 -0.0036741244846372  0.0030852201410791  0.0015200249222096
 -0.0018379060859438 -0.0009657778871892 -0.0006789104453763
 -0.0003842804842581 -0.0007052158109972 -0.0014351289588311
 -0.0002159026606231  0.0024534377213069  0.0001267723762614
 -0.0025657446470254 -0.0006625801137858 -0.0007675079258171
 -0.0004314557356053  0.0011413196190660 -0.0003490201384375
 -0.0016078453772414 -0.0001107997694497 -0.0002399778027283
  0.0001405524658051  0.0012851035881282 -0.0026870871537289
  0.0021125426126748  0.0007411015441372  0.0010149916663229
 -0.0016593588669124 -0.0010370843446487 -0.0025335743741074
  0.0008307280445311 -0.0000116391082176 -0.0025167302668961
  0.0018446386778913  0.0014899366761934  0.0006509883182795
  0.0008275790666229  0.0009772018965016  0.0021557691935195
 -0.0021659312021335  0.0003168119508186  0.0015799592638290
  0.0005441039167931 -0.0012804689589651 -0.0021004101953033
  0.0015614253656037 -0.0005834179717669 -0.0014961796606216
  0.0049786919659903 -0.0003673850733250  0.0001654842039429
  0.0011588865538596 -0.0000359376382965 -0.0020622971138363
 -0.0005772371269355  0.0004677629842590  0.0008837524725747
  0.0032638805538478 -0.0025498673831680 -0.0033669628452983
 -0.0030326554076926  0.0037662940559773  0.0014182000134269
 -0.0012220826768404 -0.0009061817558828 -0.0008815369286423
  0.0001015221567923 -0.0000184578684469 -0.0004296171105194
 -0.0015879504980235 -0.0032158102936889 -0.0019307193112271
  0.0031960339060818  0.0002690071490360  0.0016060291943698
 -0.0008896199316953 -0.0003340893815791  0.0034715687452288
  0.0014712780963935 -0.0032539040028343 -0.0017777128274162
 -0.0014855096271918 -0.0003271152712437 -0.0012649876369856
 -0.0008284823942485 -0.0000229134252828 -0.0016320869033859
 -0.0012520073292745  0.0024218404844999 -0.0015224402743026
 -0.0024783452842226 -0.0008767704635835 -0.0011063296009036
  0.0001840929093869  0.0009454775314250 -0.0006368508226592
  0.0005019218347405  0.0002811963686512 -0.0016571485576260
 -0.0027282008531831  0.0008451819360543 -0.0012857514043637
  0.0013433508517445 -0.0022703991892092 -0.0007054998720020
 -0.0004309586740623 -0.0011061415739162 -0.0004939348355296
 -0.0017609225581631  0.0031543880209254  0.0017206744713425
 -0.0024853797733766 -0.0017201816206177  0.0003426525127124
 -0.0009118562513429 -0.0016160603533758  0.0010999197796081
  0.0027408165849264 -0.0015723465120821  0.0012134060630280
 -0.0022675473201007 -0.0003391517999429 -0.0005690324512776
 -0.0001924576767694 -0.0005601066763643  0.0000421628755544
  0.0013444793763408 -0.0001325765165283 -0.0015230556240617
 -0.0020145128284924 -0.0005708264658318  0.0007887767436610
  0.0018530206264689 -0.0001892391432441 -0.0009447689103946
  0.0014142235040222  0.0004083043333287  0.0020537776762211
 -0.0000411013164628 -0.0023308438844659  0.0010279172556432
  0.0002614099655760  0.0007130814943915 -0.0009689041970086
 -0.0055730151637580 -0.0001286069219968  0.0011333264220440
  0.0023080940183902 -0.0007882603383542  0.0007744049401976
  0.0003730118728392 -0.0012933777828185  0.0018401914484027
  0.0026485339870752 -0.0003606390949354  0.0000112864942581
  0.0005860966905546 -0.0029622961524008  0.0004356539867220
 -0.0004755386120319 -0.0007439620724906 -0.0012875955188940
 -0.0029021152919037 -0.0025441606490552 -0.0001427534961228
  0.0002314512786830  0.0020977149123589  0.0026198853918638
 -0.0011545005406936  0.0010760005577226  0.0006973561047940
 -0.0008326365094348 -0.0011442396697144 -0.0007520276813144
  0.0001779883964185 -0.0003973801335085  0.0002494494415598
  0.0020391933138530  0.0008177539242199  0.0000137653017879
 -0.0012497777021257 -0.0005674823982176 -0.0008535045996441
 -0.0015590477870297  0.0002386269604300 -0.0002362710420250
  0.0004196361890030 -0.0025560822498071  0.0001731520830812
  0.0013268449780182  0.0014378284951656  0.0012038459338619
  0.0002065149719590  0.0011996746843007  0.0022209877952368
 -0.0002699560942342 -0.0004862876365728 -0.0000195034640991
  0.0004121256448941 -0.0012216134232757  0.0018364780588989
 -0.0007033082609715 -0.0003509530900032  0.0003174843207216
  0.0011023307695177  0.0019921982782747  0.0020858261386119
 -0.0011779230998070 -0.0003178039301158  0.0004641645360733
  0.0000374758083268 -0.0016595626098020  0.0013195752528556
  0.0014937125368107 -0.0001413624686748 -0.0002475103172192
 -0.0001032007328446 -0.0001032071115189  0.0002082193237540
 -0.0000010648456880 -0.0006302043275291  0.0005471415792182
 -0.0001299261419178 -0.0006621442201436 -0.0000109984753208
  0.0001940746994244 -0.0000278320026465  0.0001537352718594
 -0.0008811931012952  0.0012732234601615  0.0007607079455132
 -0.0000371008911833 -0.0014201981426036 -0.0005804497615360
 -0.0016784593842540  0.0005143739431892  0.0003084265029159
 -0.0007754507293499  0.0008301664027406 -0.0014192758330267
  0.0002464811146072  0.0005133841804784 -0.0009602589410945
 -0.0003321230304292  0.0006035579754814  0.0011718846917235
  0.0000626549797566  0.0007314609445902  0.0005343105935153
 -0.0008542530469519 -0.0010263187218480 -0.0015421690376565
 -0.0011697802483571  0.0012418956529161 -0.0005807355180544
 -0.0006785724492652  0.0010469300461806  0.0007193948282737
 -0.0001549689843166 -0.0008970423215952  0.0006368593084503
  0.0011718246946100 -0.0012105911289111 -0.0001238938337124
 -0.0001270683665160  0.0001995371546652  0.0003515582452057
 -0.0006682070958887  0.0001833542651687  0.0001968311476369
  0.0003482738722453  0.0011403174717086  0.0011379962845189
 -0.0012767880977223 -0.0002418326131411  0.0002551688547187
 -0.0007249382622873  0.0005419538445230 -0.0000962724922340
  0.0006877728684871 -0.0002212952829500  0.0007086817802054
 -0.0011397152955162  0.0003203404280067 -0.0001761980277007
  0.0006940463610171  0.0009431137025345  0.0002282304425041
 -0.0001691943887182  0.0004067804708051  0.0012838082603157
 -0.0000476094276683  0.0016094236140284  0.0017120757922461
 -0.0011742678179703  0.0009640324150799 -0.0003042487653424
  0.0006505406307559 -0.0010254114337520  0.0005937157803651
 -0.0018629584100619  0.0001226401590805 -0.0000064279917622
  0.0001059510566720 -0.0014148820219571 -0.0007934303046012
 -0.0003703764064837  0.0007417320857927  0.0009112042735601
 -0.0001425096657795 -0.0000861458010330  0.0019528326835832
 -0.0001237154916562  0.0002289725129361 -0.0007666067379852
  0.0009595329563267 -0.0009261193813326 -0.0017802146849716
  0.0013495812383442 -0.0001465522994644  0.0013248125820571
  0.0001334800728500  0.0008230040863947  0.0008311893849966
  0.0007573596951958 -0.0016071983621632  0.0005599820969504
 -0.0012515940193010  0.0007876486921328 -0.0009994812086048
 -0.0007264006074998 -0.0003078800813175 -0.0000012370130735
  0.0009541827583813 -0.0001805470126699 -0.0001452939200944
 -0.0009822826929983 -0.0001034272107027  0.0005277231697768
  0.0011524729409390  0.0006306619024131  0.0005467484110056
 -0.0008482865642615 -0.0004570566331214  0.0004750063329117
 -0.0011943338476894  0.0007444522180480  0.0010591818536076
  0.0026413272503758 -0.0000876611760890 -0.0000123946600229
 -0.0005300733204256  0.0012062351153462 -0.0007580721622614
 -0.0006949006067034  0.0003561960347027 -0.0007926047499761
 -0.0000208980660467  0.0015548080486650 -0.0012208533971843
  0.0000822327244576  0.0006277837154853 -0.0000709358718072
  0.0014860000483328  0.0005595463624389  0.0002926667679883
 -0.0018551280443995  0.0002519762762962  0.0006248460555689
 -0.0014973655705441 -0.0004053150520556 -0.0011447072007671
  0.0010757971661937  0.0035594955718299  0.0007681117828199
  0.0012745417658179 -0.0008861747841773 -0.0006686913590431
  0.0010862360914778 -0.0027401174251821 -0.0016402914228833
 -0.0015871296649330 -0.0032588048396103 -0.0006768422666798
  0.0022148924140225  0.0017012980303460  0.0016982130180496
  0.0000966594852841  0.0024174555464376  0.0002461020628952
  0.0006596615156395  0.0006442022897936  0.0007383906233541
  0.0010402036939981  0.0001995258981819  0.0004117671640752
 -0.0011821777313543 -0.0002279412044405  0.0024738833558640
  0.0007230496542001 -0.0023432690572574  0.0019481486781381
 -0.0018286694360809  0.0008443991342153 -0.0002179660564647
 -0.0021037602067561  0.0034388500651850  0.0012464417050036
 -0.0000086166449925  0.0006561178609995  0.0002559903789166
  0.0033525715567581  0.0004706845048577  0.0008247327560983
  0.0025755908014918  0.0003065649427274 -0.0004258815932217
 -0.0017900326016161  0.0024665925769771  0.0010465763100669
 -0.0015591096387800  0.0019389783350759  0.0009162375859809
  0.0004826929855866 -0.0022788038406781 -0.0008823988040699
 -0.0031726109763708 -0.0020661554912936  0.0016547491646945
  0.0017559186740767 -0.0002099560986312 -0.0009665100448564
  0.0004962608356234  0.0006731673393165 -0.0017760040557033
  0.0006419594609540 -0.0008938605832268  0.0017485831749713
  0.0005412195478895 -0.0012738559798879 -0.0005484411492037
 -0.0006749295779478 -0.0001652924494807 -0.0009625380001923
 -0.0016397522674216 -0.0000468231078748 -0.0010644580293188
 -0.0017730978954947 -0.0024028591132363  0.0005397184974349
  0.0002534614559304 -0.0002558070492303 -0.0011576336083900
 -0.0023159715839441 -0.0001380095955962 -0.0008541927178036
 -0.0017561631716807  0.0024449744297594 -0.0001334159511946
 -0.0001383970262467  0.0015687628249070  0.0003616940058151