Cs Pb I  C  H  N 
 1.0000000000000000
    25.1600000000000001    0.0000000000000000    0.0000000000000000
     0.0000000000000000   25.1600000000000001    0.0000000000000000
     0.0000000000000000    0.0000000000000000   25.1600000000000001
 Cs  Pb  I   C   H   N  
  63  64 192   1   6   1
Direct
 -0.0036508270198595  0.0025272126746563  0.2521949947127572
  0.0071961815291551  0.0078125780841200  0.4995666021469852
 -0.0063178320809154 -0.0063954598257539  0.7389760078264446
  0.0076608542742919  0.2377474452803534 -0.0055703660526392
 -0.0027003453507112  0.2494346181871352  0.2471928533650496
 -0.0033681350870380  0.2476599894660866  0.5084833290703252
 -0.0039109488341529  0.2452206571790917  0.7493200929560909
  0.0133213547277827  0.5030315692333104 -0.0019183486617383
  0.0106068671399347  0.4903951162698271  0.2575523632552486
  0.0163994172569630  0.4909412287181437  0.5049338980668250
  0.0034295490320259  0.4989516422068017  0.7614324525315338
 -0.0013521287653889  0.7515697603028398  0.0018105818171415
  0.0026491198551937  0.7587469949413129  0.2497458644751149
 -0.0040651930141358  0.7416546232311033  0.5083884931140243
  0.0024595303296066  0.7431808646041599  0.7403039435690093
  0.2505952480177873  0.0042017852734254  0.0045894820366920
  0.2470376323890729 -0.0030214496752852  0.2457671250168022
  0.2514165841550916 -0.0138541538991936  0.5067642033672737
  0.2552142247483579  0.0011791962324881  0.7522635946364691
  0.2616507288376643  0.2540728334071076 -0.0006085963750839
  0.2492446750197058  0.2647359034772647  0.2481610038483021
  0.2511844985715943  0.2529435069894556  0.5029815376861905
  0.2522450070652912  0.2497123242027963  0.7446349613269705
  0.2586955083947499  0.5116016733921156 -0.0058072234985863
  0.2581600102153426  0.4977759692205157  0.2447788776374321
  0.2537446803770184  0.5140558035971325  0.5019251167439001
  0.2653438595828153  0.4895638724946232  0.7392888134377084
  0.2564949369550972  0.7457637913213305  0.0002071997193444
  0.2468066240387528  0.7505856137185156  0.2479975176415567
  0.2568034044973503  0.7466818757541450  0.4966717269633751
  0.2433657820106744  0.7498004818937648  0.7557139358233929
  0.4937121441435268 -0.0028962214383650 -0.0116354135465749
  0.5091483241942935 -0.0020069923651090  0.2363481411269560
  0.5192227118561009 -0.0038504940741430  0.5035700085635714
  0.5006807580784250  0.0006658089291382  0.7435112150151790
  0.4871549500519555  0.2403563399907540 -0.0012260523420236
  0.4994209932000696  0.2549839204566919  0.2458597185840400
  0.4847179236237695  0.2692074315339504  0.4929119930360866
  0.5038936466439531  0.2557988123229399  0.7405447326708470
  0.5087943055829630  0.4926216178006411 -0.0097351154809414
  0.5008025678240131  0.5002145628810160  0.2466988963773278
  0.4886521567845790  0.4880094519584109  0.5003420455134117
  0.4947036973156991  0.5088745826471776  0.7589206798357059
  0.5071536434983133  0.7516334572804715  0.0031735366202253
  0.4941507546618297  0.7561598086530483  0.2482972531615810
  0.4972708517023744  0.7424184230067397  0.4954728504068107
  0.5064088530270252  0.7534256472091759  0.7565252002504903
  0.7435921699024864 -0.0000945226207611 -0.0084557779940641
  0.7511239828370858  0.0037089073034952  0.2546215495176383
  0.7459225821423007  0.0045949593970042  0.4927575074912676
  0.7505319576758654  0.0020554316711418  0.7444081448684400
  0.7531308437542292  0.2407513552079800  0.0073291153452753
  0.7592949651328917  0.2377930054725372  0.2582680511550386
  0.7578106260767891  0.2672793486680149  0.5025008397390535
  0.7531288590555190  0.2633336717562529  0.7480789993380801
  0.7403750011501820  0.4937729624540506 -0.0010507722131426
  0.7547370352339315  0.4907152560458037  0.2521703686626501
  0.7572458572541926  0.5000507994787194  0.5044675613637151
  0.7456924256874148  0.5010081551172034  0.7494744705720322
  0.7496546019230268  0.7520718157703762  0.0024529004500374
  0.7519642710003642  0.7516361976978159  0.2499832294184114
  0.7520225686276260  0.7480971272064323  0.5032723108495819
  0.7462675397115255  0.7550344932073580  0.7519371133626032
  0.1315990228306624  0.1341132153868059  0.1286794048892684
  0.1120509301251240  0.1284459241461814  0.3719417594047115
  0.1331635807503755  0.1329742600124201  0.6240904975543951
  0.1271808605631636  0.1301856133342673  0.8694190194400309
  0.1241163919694084  0.3721200250425968  0.1197540635817669
  0.1259105637209639  0.3712939887860431  0.3731873400717274
  0.1309754780312581  0.3761110167597490  0.6300962983011718
  0.1243254808051509  0.3717772304593092  0.8694949281885734
  0.1227604289955970  0.6264035922132135  0.1240048306841819
  0.1249627891641103  0.6193664038790344  0.3721658813409858
  0.1242645289611805  0.6186021979336019  0.6335791249179202
  0.1220890776114976  0.6279131510728837  0.8714571004356718
  0.1288343261687855  0.8785787616953431  0.1240731961195650
  0.1281305206810119  0.8683226821166855  0.3797238650011858
  0.1187229353798256  0.8803532706016334  0.6248864030158471
  0.1257922966455773  0.8780769992402796  0.8697462978623900
  0.3731196965575094  0.1221427302056574  0.1256900946946449
  0.3704628912985827  0.1191282891333765  0.3761784032740346
  0.3743726513619633  0.1172240991208479  0.6262423074198910
  0.3691396752941333  0.1262213206589625  0.8709126531642096
  0.3851191473718459  0.3795411813379654  0.1243461354851937
  0.3746134720474557  0.3686892014555221  0.3807935702741256
  0.3780335927748697  0.3731028266193375  0.6339224603287326
  0.3694538259590959  0.3732888981967224  0.8781391773989531
  0.3821579807296873  0.6202839092008032  0.1263145064034581
  0.3737217835299841  0.6214921757617742  0.3786306083038278
  0.3670260373522012  0.6284867221044476  0.6312437463190954
  0.3742635765768473  0.6275010402685689  0.8689060202672384
  0.3779712899132663  0.8780371727063596  0.1220611871342718
  0.3817152199806240  0.8757022228721987  0.3749911553954745
  0.3636289795714095  0.8735429410862166  0.6191964933094859
  0.3780173585988931  0.8746138694230465  0.8730264780603199
  0.6292606557451345  0.1315044644487307  0.1306024171061767
  0.6246766912467557  0.1258550921479021  0.3678006150538897
  0.6206052494072282  0.1258819117234370  0.6217286147824744
  0.6232818487634076  0.1319880244434595  0.8757838214732468
  0.6214468440904450  0.3719581846422364  0.1252501945701876
  0.6307238796360056  0.3817800471180258  0.3722902589376983
  0.6262966601441097  0.3783390476005637  0.6187465984877678
  0.6225220053687928  0.3817418350556628  0.8745065593941836
  0.6191211478942104  0.6251964959522639  0.1236940589509362
  0.6322841565429014  0.6231499570939764  0.3773121741098495
  0.6249554310658704  0.6296119263352509  0.6299050019713043
  0.6233793637591289  0.6248859157739494  0.8802825727782833
  0.6214220140700938  0.8768666216927032  0.1232959489827560
  0.6324493562428665  0.8738294308106467  0.3790340058044119
  0.6255168734855335  0.8722543607915040  0.6253906224922958
  0.6339081915936903  0.8701656477447182  0.8719329668788295
  0.8771726860737835  0.1374732593941085  0.1292870973313170
  0.8730392692034195  0.1237359264360706  0.3764115739609556
  0.8785552788341403  0.1279673521229916  0.6281443848177208
  0.8770081983508040  0.1227824026900781  0.8787557954661567
  0.8770622656112784  0.3710190129606182  0.1258879168471072
  0.8755591223197705  0.3811181395225610  0.3774690939029229
  0.8752518855490389  0.3784238120903675  0.6302884557784686
  0.8697212895466452  0.3741056354975756  0.8715011084623068
  0.8723946046276120  0.6281554726825955  0.1234869198019656
  0.8713619053214329  0.6265369393522066  0.3729236588598684
  0.8703025871579253  0.6166186283458926  0.6236817799325653
  0.8671927553837501  0.6233967172254461  0.8738532964109794
  0.8830764568256798  0.8803344169346955  0.1272077335599021
  0.8754414593518893  0.8765775383444513  0.3711060575547260
  0.8783368618185056  0.8693350143124833  0.6303202461244330
  0.8799101220584354  0.8755997761735759  0.8825429251042580
  0.1205181438408524  0.1373846049018151  0.0055664782879642
  0.1382890789901897  0.1266166068996001  0.2516655876197502
  0.1321279700546357  0.1309380755640515  0.4990751762303162
  0.1276618797506807  0.1308571502933340  0.7532797876727458
  0.1324359211733147  0.3680286220941724  0.0025279794324575
  0.1259573121247471  0.3652410480825968  0.2537056422512704
  0.1228922250203803  0.3678754196725220  0.5007290023700163
  0.1295702201123308  0.3728622336375532  0.7491593915008450
  0.1324778009294607  0.6247301241318435 -0.0082821182183850
  0.1228896188147845  0.6312316590725688  0.2474925880051886
  0.1318077869385167  0.6245062255566773  0.5086049430752576
  0.1224240137115724  0.6234914189318690  0.7494953369373488
  0.1341627527635864  0.8852454638182800 -0.0046153536588216
  0.1139965364681604  0.8688325064895417  0.2536836778389007
  0.1182124668073941  0.8859713468573569  0.5087628619425960
  0.1125200778175234  0.8653320375087258  0.7500763714097265
  0.3798541853793767  0.1144353855893326 -0.0059801010290613
  0.3686052254445231  0.1158929563519743  0.2509473799158049
  0.3787005107463787  0.1185111664477705  0.5048696479404697
  0.3710079497086812  0.1305264010066365  0.7495903048987242
  0.3739244352434236  0.3834233687275020 -0.0019027646719028
  0.3790268236135525  0.3845534079916254  0.2479620060548408
  0.3753145767239675  0.3888816217848481  0.5006388209775620
  0.3740127085969608  0.3813999110456290  0.7573599332204825
  0.3793481508114672  0.6250320527901475  0.0013712737956151
  0.3979713342022663  0.6262707009171063  0.2531854262001624
  0.3738857034235855  0.6144121546570296  0.5053941039318945
  0.3730202377034710  0.6288307692895881  0.7480996029238578
  0.3729943820574836  0.8772056223007301 -0.0016632583178449
  0.3781436935161678  0.8652666548043679  0.2488966237649392
  0.3854465783355174  0.8743153368236107  0.5018461197563379
  0.3798475088406632  0.8759951765396354  0.7524706799659235
  0.6339122350246277  0.1285162071613127 -0.0039339495298459
  0.6160206548159651  0.1231373810754858  0.2462333781655644
  0.6200138221561858  0.1250043534007340  0.4982605734115437
  0.6190620096430498  0.1289582638216570  0.7512347375351471
  0.6414583358329699  0.3761780724563909  0.0016718865909108
  0.6355305757046608  0.3800085801041252  0.2517957026469272
  0.6134569726965773  0.3700336665505777  0.5019647744026204
  0.6321514990130416  0.3778797764771173  0.7516238903850527
  0.6198799870751955  0.6344654873474559 -0.0027290855545435
  0.6190197252478005  0.6264298150714760  0.2449637689883866
  0.6122540201718947  0.6286516770858882  0.5024474006992554
  0.6177243566366475  0.6247055640299064  0.7508794265677627
  0.6271417181770174  0.8663033115511888 -0.0053686550421488
  0.6223110287684649  0.8669417880213598  0.2486512242546421
  0.6259430397850049  0.8721276648434040  0.5037645689061671
  0.6303881145452803  0.8828430497942462  0.7500394931750782
  0.8826438644137915  0.1167594481884423  0.0066488465852342
  0.8772781138877743  0.1286047662345795  0.2514244407831678
  0.8697940649888256  0.1310362021808201  0.5062006757748150
  0.8719537914669998  0.1102754495125110  0.7584126059503089
  0.8667600478356540  0.3771290625139375 -0.0075161673925535
  0.8670853667969619  0.3835425219853340  0.2515632268870776
  0.8714528185300461  0.3714860026360119  0.5048962545559883
  0.8729663236588937  0.3744874804354122  0.7528416889693744
  0.8788718577641779  0.6355352079324429 -0.0002086815597326
  0.8781636801074079  0.6244781035188657  0.2499172081468747
  0.8748322229959511  0.6178448377794090  0.4993902535123419
  0.8770107567130697  0.6181741200531025  0.7538582079121954
  0.8667974513465637  0.8734615186546369 -0.0015418003791117
  0.8690825344678268  0.8747166760456431  0.2454961046883264
  0.8896457386394203  0.8818678852097599  0.5094819078289466
  0.8807360549475924  0.8723524778768397  0.7539453154184353
  0.1284369793365776  0.0001569394651092  0.1303475185146655
  0.1170463227076953 -0.0010050189801613  0.3690906582809248
  0.1190572069868489 -0.0012071460008158  0.6254821437127844
  0.1055910304040610  0.0018676971929653  0.8795924810825153
  0.1071143372545890  0.2502584178633738  0.1350553373618474
  0.1296793654185716  0.2546593039226778  0.3839204873363579
  0.1215502782083889  0.2506772955429504  0.6296365082804859
  0.1335158209802090  0.2513599652851982  0.8779272375567535
  0.1289196656910470  0.4987496743884823  0.1197936983605009
  0.1252384871030977  0.4955718339553924  0.3716180415108978
  0.1350496441475352  0.4989286209913754  0.6045145310996243
  0.1242390793935912  0.5037891448502423  0.8851961275189401
  0.1291573566178460  0.7493516037853626  0.1312963524096867
  0.1169264049101564  0.7451932262964122  0.3745821818061121
  0.1178755739263551  0.7473940515056533  0.6264953924451961
  0.1373301583020661  0.7564821395778025  0.8751906424727641
  0.3869449428468802  0.0069858640296489  0.1357377454021339
  0.3787157333892575 -0.0022206768587586  0.3814713125071851
  0.3921225415717115 -0.0081854359767896  0.6308986253219959
  0.3769139964671278 -0.0004668446453881  0.8773173986265269
  0.3767555594062791  0.2577084420418353  0.1288359567803888
  0.3786885301622748  0.2438133538484381  0.3804181570397603
  0.3786089900614676  0.2522507419635037  0.6186838531262028
  0.3704364048118092  0.2484700563519339  0.8692225325818387
  0.3729549711841179  0.5011450609366515  0.1236451710229019
  0.3531957239773266  0.4968577479461148  0.3839729371403892
  0.3726882118700144  0.5046012618541708  0.6298101071052467
  0.3873364752427510  0.4957944218900292  0.8869461462889381
  0.3700646861260928  0.7483501936921084  0.1269542718781226
  0.3817117763689274  0.7490176987852676  0.3742649055251409
  0.3705096490183613  0.7468660159566006  0.6299029218602232
  0.3671097909908003  0.7441284209448057  0.8684310609137217
  0.6203689763315008  0.0033832762977382  0.1308403227762831
  0.6257420544878654  0.0018561453737346  0.3872264101518549
  0.6287024684232548 -0.0051526511595273  0.6296880475023616
  0.6285356201271510 -0.0046656341768002  0.8778227331756945
  0.6226489116754740  0.2491420732979105  0.1248412450887324
  0.6309537769574606  0.2513030428890293  0.3717385555654035
  0.6224681271499112  0.2450355422831901  0.6287349972064740
  0.6165158320461017  0.2538950185546893  0.8700701077417120
  0.6202386883273504  0.5019681112988379  0.1182622732493777
  0.6271011320934307  0.5034481364225774  0.3787472240608808
  0.6254872259472468  0.5022536754671114  0.6263011330027382
  0.6215871516886619  0.5007155851734585  0.8807156157357634
  0.6247945262894761  0.7508012928999760  0.1217943280884932
  0.6261459191924066  0.7481491116720310  0.3727144145303550
  0.6423357706035435  0.7575989710824521  0.6347801467197945
  0.6217394085480863  0.7423350179343630  0.8738133202473628
  0.8851078967424978  0.0014866242037519  0.1332829600052614
  0.8687799796129643 -0.0022958046275904  0.3673747835293234
  0.8657587917111741  0.0081969886866664  0.6218321310030221
  0.8861658576335938 -0.0001103174667659  0.8884626882730110
  0.8916672336879879  0.2531536031149278  0.1289115490142429
  0.8720438619936790  0.2478740993830082  0.3755480558510786
  0.8675521360063475  0.2556338630213278  0.6174111839586512
  0.8750852087584297  0.2552659571541990  0.8723418567649162
  0.8822355127513707  0.5086047638557395  0.1268906390688494
  0.8734907912512867  0.5025689887224870  0.3696180234706698
  0.8839503426363718  0.4998606881388404  0.6329411975989091
  0.8854226724829407  0.4975673643857664  0.8768486812068843
  0.8695783053760473  0.7501975510600726  0.1197023131244403
  0.8726859799870433  0.7556407441384202  0.3637401914040016
  0.8785852277675028  0.7455728045942048  0.6170802640196054
  0.8668246074742590  0.7485641744897316  0.8808063887523959
  0.0024050322035760  0.1387024572072218  0.1332274537771296
 -0.0071246077542981  0.1266466792878216  0.3804944213536572
  0.0047027480661475  0.1271298447742946  0.6386660514470476
  0.0016045385312273  0.1318453123068345  0.8787810751877082
 -0.0015646756309155  0.3729689535963423  0.1281556293785975
  0.0062802936916520  0.3778812216792222  0.3871625050471142
  0.0042896800815770  0.3699208133297054  0.6348309949174308
  0.0029211939820145  0.3774644608813143  0.8782079631036859
  0.0046279151275387  0.6289175939327047  0.1121877515198555
 -0.0043113700751668  0.6214791235598262  0.3729728317156571
 -0.0013611285314718  0.6240581102867658  0.6187498933317448
  0.0030505635124662  0.6221707638130228  0.8656247703994900
  0.0078324020044124  0.8710123578690865  0.1232182788688660
 -0.0045764022172781  0.8758842447507420  0.3584661139098610
  0.0011265245299643  0.8778848558556497  0.6176730090002135
 -0.0012280557175530  0.8828639861940480  0.8883227012183306
  0.2460263978371362  0.1362536500674650  0.1226690231659905
  0.2458794186557817  0.1200240469118487  0.3797889671671630
  0.2515297203897549  0.1285946674155554  0.6098466981755775
  0.2495682310480354  0.1327641261745374  0.8724845100123094
  0.2495338156424518  0.3834166841106455  0.1253387666025825
  0.2493858545139507  0.3754840037237701  0.3818764668493306
  0.2591006339041200  0.3702068036520113  0.6325466911474684
  0.2507020820281480  0.3751020800411709  0.8760609938573720
  0.2492648674169727  0.6333992614859504  0.1223461365344344
  0.2494853255373777  0.6294185151276088  0.3682698936535670
  0.2482107218987724  0.6259693066062751  0.6205857944067170
  0.2455401312269678  0.6161997542155137  0.8794720360763595
  0.2533870865748419  0.8741161334031653  0.1291170485168993
  0.2488585196117637  0.8680499738556788  0.3759603621461973
  0.2453642083595456  0.8805734776482632  0.6184706061565478
  0.2447616439330598  0.8748404002504047  0.8857087805341313
  0.4924948344600158  0.1294954841633735  0.1358544726073767
  0.5016841716014144  0.1293185572190662  0.3732647602915335
  0.4972794865813253  0.1379351291984500  0.6244245477477645
  0.4907641603785737  0.1322402420821905  0.8673735814641079
  0.5044734990104268  0.3810622445009770  0.1241855382354990
  0.5022775088440322  0.3829386542252259  0.3868334654828238
  0.5041301182734298  0.3695202570774027  0.6352059738843914
  0.4988425334844555  0.3825116685004176  0.8820669909888679
  0.5030999864355521  0.6163848271400966  0.1190066833690034
  0.5028485788215837  0.6279027139239718  0.3783692186455693
  0.5032108086684842  0.6315062453814668  0.6268380318279373
  0.4969165426432044  0.6247596489166520  0.8735212324726724
  0.5025533438303966  0.8755163121385371  0.1213960361592987
  0.5027324000064776  0.8788174858068072  0.3636716888018503
  0.5042265790184035  0.8741234281047403  0.6289518702872589
  0.4953632894470969  0.8667943729090265  0.8831627461108136
  0.7498833329475738  0.1224619025519730  0.1360288317874850
  0.7543087879558351  0.1380975010066106  0.3805664904763363
  0.7544288888009923  0.1261506906269053  0.6278670823199540
  0.7486306049457032  0.1199884445154326  0.8734698141045270
  0.7454284624662874  0.3840832374858161  0.1233343209421594
  0.7555644812710475  0.3785470939447206  0.3707413662852934
  0.7527258410667896  0.3781196320922900  0.6242400425218345
  0.7475811046557338  0.3678480694017990  0.8582045809531479
  0.7544044645006043  0.6332704775723499  0.1293380287339172
  0.7519094128021262  0.6232955953547326  0.3605713499951427
  0.7497161396387089  0.6218143923634990  0.6293248079265057
  0.7445066337452010  0.6262197425379733  0.8791212214222408
  0.7482637467905305  0.8790455566818660  0.1258462923642290
  0.7508103731787154  0.8714036144871612  0.3744335766612509
  0.7552289910790487  0.8805267041560324  0.6186493591917240
  0.7511148145845418  0.8742455544908746  0.8669674645149570
 -0.0178267792990965 -0.0120969416641819 -0.0259017776946464
  0.0075077738770396 -0.0332152078883077 -0.0015577305186868
  0.9366889119994730  0.0066088878722771 -0.0283687917750497
  0.0069733560308992  1.0039200848254106 -0.0584774804968834
 -0.0289553096833697  0.0449421839676000  0.0505286331828055
 -0.0177269077933266  0.0733696665505914 -0.0130053992595696
  0.0270313522298522  1.0418698013010173  0.0094275008882485
 -0.0130940207705039  0.0390145730472699  0.0114282831943704
Cartesian
 -0.0007751357826658  0.0004832189451387  0.0005856210952312
  0.0017144010045130  0.0018188269207286 -0.0000222979938220
 -0.0016323518721242 -0.0016034954290736 -0.0024844102580569
  0.0018833641685741 -0.0028128033689778 -0.0014921374852511
 -0.0005705098045260 -0.0000483969913705 -0.0006691001539573
 -0.0008593930438050 -0.0003758303420325  0.0021246724836513
 -0.0010931536944203 -0.0012787211028494 -0.0001620670039002
  0.0031600420188863  0.0008442548461428 -0.0004609370728354
  0.0024747682048970 -0.0022682428489035  0.0017892190497701
  0.0041979807172783 -0.0021884419034646  0.0011157049225978
  0.0005688739669085 -0.0002280574118015  0.0031071899045945
 -0.0003928426910495  0.0004393408604776  0.0004949337796874
  0.0006944575000641  0.0020324636684204 -0.0000557386192288
 -0.0008993869155118 -0.0022350842276697  0.0021317027067306
  0.0006191486790637 -0.0016987995496125 -0.0024391248520010
 -0.0001556625163897  0.0007687799878326  0.0008764540686413
 -0.0008580409513042 -0.0006245411358814 -0.0008435269356907
  0.0002938136814723 -0.0030754114021597  0.0012341348160309
  0.0013154445942254  0.0002108798153462  0.0007817469347432
  0.0028109910692353  0.0011060226914709 -0.0001842540272652
 -0.0000807989188814  0.0036985782654616 -0.0004120995859310
  0.0001954433560004  0.0006723619667750  0.0004917611666746
  0.0006904272327547 -0.0000755264003788 -0.0012247338314941
  0.0020673263730720  0.0029625971356645 -0.0013732902808685
  0.0020088686543956 -0.0007065691852661 -0.0013539924978297
  0.0008664786864404  0.0034503616270920  0.0004031868148922
  0.0037677736044047 -0.0025315034188552 -0.0024665307779976
  0.0014801704075245 -0.0010933729122799  0.0000736262276722
 -0.0007671221780223  0.0001208383430521 -0.0006874270356661
  0.0015790397141528 -0.0011001895463263 -0.0008534768609717
 -0.0017936099859656  0.0000373336395312  0.0014969640487426
 -0.0014154075648953 -0.0006807943742273 -0.0030746052287614
  0.0021981061564423 -0.0004914938293756 -0.0031862546880144
  0.0046888490621374 -0.0008456252005119  0.0008622932106318
  0.0004195459953609  0.0001502681364717 -0.0015821193579862
 -0.0031299005829971 -0.0025490921852943 -0.0005058273230878
 -0.0002737350235660  0.0009618564720873 -0.0008771652523444
 -0.0036217386763535  0.0044132644381391 -0.0016350789379354
  0.0012473150532753  0.0012213546719159 -0.0022093657829565
  0.0020487774396401 -0.0017438621211525 -0.0024505419320664
  0.0002786123530041  0.0002703752927226 -0.0007047603632337
 -0.0027528584213115 -0.0025288098051808  0.0001628389611314
 -0.0012821019014204  0.0022069783570820  0.0021905701596507
  0.0018083248409102  0.0004501347711033  0.0007646491787346
 -0.0013406262688447  0.0014567283856440 -0.0001852336001850
 -0.0006930945535277 -0.0021288050335330 -0.0012027340460962
  0.0015784955153243  0.0009074051913369  0.0014985999895164
 -0.0015596425198153 -0.0000399812174450 -0.0020997830295654
  0.0004126517334284  0.0007054584905107  0.0008129025322342
 -0.0009278154600104  0.0012704067320377 -0.0014176177382748
  0.0000822778304582  0.0006689840925132 -0.0015542677426397
  0.0006630811784809 -0.0021132654601818  0.0015298103569960
  0.0022320091022819 -0.0027523215633690  0.0023851119041477
  0.0018813083438996  0.0039384070608168  0.0005671269023394
  0.0004945484954371  0.0030912019582343 -0.0006218773479909
 -0.0021511599722616 -0.0016614111166887  0.0000381900356415
  0.0012682683238958 -0.0021348483689685  0.0002374286745048
  0.0018114370723249  0.0000301358583439  0.0011668712483983
 -0.0012238288972504  0.0001611403646491 -0.0001712669912189
  0.0001165114657004  0.0006008524406352  0.0008935121088693
  0.0004108066591562  0.0003656981070532 -0.0002106007593362
  0.0005194932603245 -0.0003370928075716  0.0009531584350331
 -0.0008115906978695  0.0013415564933466  0.0005515753066867
 -0.0000487359687784  0.0011675187933835  0.0006392696643826
 -0.0019015836211757  0.0006483297020900 -0.0004641681839622
  0.0010134270200020  0.0008827630921715 -0.0002624580707663
  0.0002137560457386  0.0000589103929113  0.0001700322965850
  0.0002812566522972 -0.0000785749732883 -0.0003590534864814
  0.0005734566320713  0.0000230215253574  0.0002043361398953
  0.0012410977534755  0.0004491039251898 -0.0001681287038344
 -0.0001215137955096 -0.0000019452233306 -0.0005378352995605
  0.0001034844436381  0.0000612411631304 -0.0007990118264823
 -0.0004413390043693 -0.0013971896993384 -0.0001493579011504
 -0.0005606929790487 -0.0006672080274271  0.0007646134728920
 -0.0000740852179904  0.0010141386751570 -0.0006780831402846
  0.0010350259233032  0.0005410066603676 -0.0007356166221070
  0.0000308639858941 -0.0011847446656182  0.0010075383446620
 -0.0008891854394431 -0.0001759236698378  0.0017297412769577
 -0.0005819377731740  0.0013587499815889 -0.0006826652558051
 -0.0007150224644049  0.0012957525527461 -0.0000262594996799
 -0.0011371796768951 -0.0013834911761658  0.0004101577176345
  0.0002178987714864 -0.0016633560007040  0.0001429519370007
 -0.0007810471361041  0.0000078838683433 -0.0008355260665174
  0.0013421505249948  0.0007167442599230 -0.0003682744698510
 -0.0002889196100556 -0.0011982273086164  0.0006045350218314
  0.0015285664924801  0.0002416079744631  0.0018548050402916
 -0.0003550962425059 -0.0003822105397271  0.0008961766162633
  0.0008344161834457 -0.0002651565168997  0.0002764842707277
  0.0003789950490219 -0.0008348583961568  0.0008622166362773
 -0.0008987497668336  0.0003007799355341  0.0001612395041479
 -0.0006335085621393 -0.0007622400148087 -0.0005944006787310
  0.0004782504116477  0.0002573179989937 -0.0005408217077316
  0.0014471842725199  0.0000204491439391 -0.0002381314551599
 -0.0017312348804771 -0.0011518680623698 -0.0003499027163468
 -0.0003733540973764 -0.0000949080877128 -0.0005296240033950
  0.0003904179236610  0.0003185922307449 -0.0003471482193926
 -0.0001684213929241  0.0006111146247335 -0.0008000502139816
 -0.0003816061588868 -0.0004623528327229 -0.0005062236515558
 -0.0007176504112955  0.0013303452845682 -0.0004398546136663
  0.0007323647743043 -0.0003018044435285 -0.0000838421663449
  0.0010338263191710  0.0010065818412947 -0.0002811992754949
  0.0003146535132715  0.0005737754830167 -0.0002243289903034
 -0.0007462609142290  0.0005848199975410 -0.0000406975144289
  0.0003396314104939  0.0002310957525965 -0.0002071089348026
  0.0007745256698482  0.0002744220100869  0.0004768032397159
 -0.0003704232470575  0.0010876135331543  0.0007204787160798
 -0.0008335007149218 -0.0007346213096071  0.0002841259803472
  0.0006624139072265  0.0005346737307574 -0.0004511265742598
  0.0009138549412068 -0.0004714590795039  0.0005891132116781
  0.0002422119806173  0.0010137441883721  0.0004201261484060
  0.0011756913857758 -0.0008001259344062 -0.0007129774000229
  0.0007671815862194  0.0010177440993982  0.0007230874653192
 -0.0007189477765401 -0.0002897119107768  0.0007826896305840
  0.0006266678015863  0.0009366032483418  0.0012053034322273
  0.0003372944983028 -0.0004222680540599  0.0010139684056209
 -0.0002151322227056  0.0005475987530990 -0.0002748808007364
  0.0011650495006698  0.0008402469092548  0.0008310035385724
  0.0006230453707768  0.0004536171944499  0.0012184236378561
 -0.0009643850118695  0.0003848807179462  0.0000401784647247
  0.0001362417964615  0.0007469672880059 -0.0002615546299903
 -0.0000460388170707  0.0007916095558931 -0.0006678564212913
 -0.0004447705671614 -0.0010309955634654 -0.0000885748577260
 -0.0013498664521026 -0.0004952281017222  0.0004322080015901
  0.0014832003245509  0.0009979323961075 -0.0005804175649702
  0.0004532322953139  0.0002139586951622 -0.0001980108040122
  0.0002432058703871 -0.0010115341298490  0.0013448833609287
  0.0013831414525698  0.0000730327722147  0.0008271096484015
 -0.0009422010333861  0.0029348323253395  0.0006200009707265
  0.0032819345895307  0.0004639849137340  0.0009353275142791
  0.0013133133262195  0.0013413618623381  0.0001199134958857
  0.0008929356529094  0.0014097816090013 -0.0015846656720416
  0.0017568989316660 -0.0019764637979122 -0.0012998622061026
  0.0001456182621203 -0.0023401452282013 -0.0007045148661395
 -0.0004189747065900 -0.0017876983435686  0.0012214348969462
  0.0012389166980668 -0.0003007222902180  0.0009107106061042
  0.0015929366222765  0.0002381349533804 -0.0002418830757576
 -0.0006227470482285  0.0012983794260767  0.0001506787012729
  0.0016315491858296  0.0001336747156184 -0.0001811258919094
 -0.0005248549564076 -0.0004712082144648  0.0014370229223508
  0.0023093409933289  0.0022722095499741  0.0005533623897727
 -0.0022369776030226 -0.0014447761839040  0.0009986971182445
 -0.0015560109793392  0.0026689488048624 -0.0020997408140123
 -0.0030759746542215 -0.0023392019651344 -0.0006503812198112
  0.0011626714861040 -0.0024159262004049  0.0001990407431385
 -0.0018236163484897 -0.0020198326444971  0.0002521572390431
  0.0009745543028393 -0.0016792750931343  0.0004011062760996
 -0.0013078347926238  0.0012063414646220 -0.0009877919053029
 -0.0002846112160761  0.0016522284244460  0.0013436619993301
  0.0010665609412782  0.0023635800389560  0.0002452491160013
  0.0001163475780207  0.0030999836253912  0.0019259873848797
 -0.0000744277263910  0.0016813980718385 -0.0001036918459632
  0.0009882226157751  0.0001489372508796 -0.0003696334282020
  0.0055980410408704  0.0000133570844999  0.0008281446417961
 -0.0001981547619875 -0.0023016724760539  0.0004909892680268
 -0.0005001165193382  0.0006124744802433  0.0017334758152766
 -0.0005848955883810  0.0006432227474928  0.0005904522019930
  0.0006705453989069 -0.0022469416938917 -0.0002638215940247
  0.0026366581379871 -0.0002983233315941 -0.0006030780484223
  0.0009929805610726  0.0002750817945945 -0.0006373859176029