IVDW = 12
IBRION = 0
MDALGO = 2
NSW    = 200 
TEBEG  = 500
POTIM  = 0.5
NBLOCK = 5
SMASS  = 1.0
