Cs63MAPbI3 4x4x4 CsPbI3, one Cs replaced by methylammonium (MA)
1.0
  25.16000  0.00000  0.00000
   0.00000 25.16000  0.00000
   0.00000  0.00000 25.16000
Cs Pb I C H N
63 64 192 1 6 1
Direct
  0.00000  0.00000  0.25000
  0.00000  0.00000  0.50000
  0.00000  0.00000  0.75000
  0.00000  0.25000  0.00000
  0.00000  0.25000  0.25000
  0.00000  0.25000  0.50000
  0.00000  0.25000  0.75000
  0.00000  0.50000  0.00000
  0.00000  0.50000  0.25000
  0.00000  0.50000  0.50000
  0.00000  0.50000  0.75000
  0.00000  0.75000  0.00000
  0.00000  0.75000  0.25000
  0.00000  0.75000  0.50000
  0.00000  0.75000  0.75000
  0.25000  0.00000  0.00000
  0.25000  0.00000  0.25000
  0.25000  0.00000  0.50000
  0.25000  0.00000  0.75000
  0.25000  0.25000  0.00000
  0.25000  0.25000  0.25000
  0.25000  0.25000  0.50000
  0.25000  0.25000  0.75000
  0.25000  0.50000  0.00000
  0.25000  0.50000  0.25000
  0.25000  0.50000  0.50000
  0.25000  0.50000  0.75000
  0.25000  0.75000  0.00000
  0.25000  0.75000  0.25000
  0.25000  0.75000  0.50000
  0.25000  0.75000  0.75000
  0.50000  0.00000  0.00000
  0.50000  0.00000  0.25000
  0.50000  0.00000  0.50000
  0.50000  0.00000  0.75000
  0.50000  0.25000  0.00000
  0.50000  0.25000  0.25000
  0.50000  0.25000  0.50000
  0.50000  0.25000  0.75000
  0.50000  0.50000  0.00000
  0.50000  0.50000  0.25000
  0.50000  0.50000  0.50000
  0.50000  0.50000  0.75000
  0.50000  0.75000  0.00000
  0.50000  0.75000  0.25000
  0.50000  0.75000  0.50000
  0.50000  0.75000  0.75000
  0.75000  0.00000  0.00000
  0.75000  0.00000  0.25000
  0.75000  0.00000  0.50000
  0.75000  0.00000  0.75000
  0.75000  0.25000  0.00000
  0.75000  0.25000  0.25000
  0.75000  0.25000  0.50000
  0.75000  0.25000  0.75000
  0.75000  0.50000  0.00000
  0.75000  0.50000  0.25000
  0.75000  0.50000  0.50000
  0.75000  0.50000  0.75000
  0.75000  0.75000  0.00000
  0.75000  0.75000  0.25000
  0.75000  0.75000  0.50000
  0.75000  0.75000  0.75000
  0.12500  0.12500  0.12500
  0.12500  0.12500  0.37500
  0.12500  0.12500  0.62500
  0.12500  0.12500  0.87500
  0.12500  0.37500  0.12500
  0.12500  0.37500  0.37500
  0.12500  0.37500  0.62500
  0.12500  0.37500  0.87500
  0.12500  0.62500  0.12500
  0.12500  0.62500  0.37500
  0.12500  0.62500  0.62500
  0.12500  0.62500  0.87500
  0.12500  0.87500  0.12500
  0.12500  0.87500  0.37500
  0.12500  0.87500  0.62500
  0.12500  0.87500  0.87500
  0.37500  0.12500  0.12500
  0.37500  0.12500  0.37500
  0.37500  0.12500  0.62500
  0.37500  0.12500  0.87500
  0.37500  0.37500  0.12500
  0.37500  0.37500  0.37500
  0.37500  0.37500  0.62500
  0.37500  0.37500  0.87500
  0.37500  0.62500  0.12500
  0.37500  0.62500  0.37500
  0.37500  0.62500  0.62500
  0.37500  0.62500  0.87500
  0.37500  0.87500  0.12500
  0.37500  0.87500  0.37500
  0.37500  0.87500  0.62500
  0.37500  0.87500  0.87500
  0.62500  0.12500  0.12500
  0.62500  0.12500  0.37500
  0.62500  0.12500  0.62500
  0.62500  0.12500  0.87500
  0.62500  0.37500  0.12500
  0.62500  0.37500  0.37500
  0.62500  0.37500  0.62500
  0.62500  0.37500  0.87500
  0.62500  0.62500  0.12500
  0.62500  0.62500  0.37500
  0.62500  0.62500  0.62500
  0.62500  0.62500  0.87500
  0.62500  0.87500  0.12500
  0.62500  0.87500  0.37500
  0.62500  0.87500  0.62500
  0.62500  0.87500  0.87500
  0.87500  0.12500  0.12500
  0.87500  0.12500  0.37500
  0.87500  0.12500  0.62500
  0.87500  0.12500  0.87500
  0.87500  0.37500  0.12500
  0.87500  0.37500  0.37500
  0.87500  0.37500  0.62500
  0.87500  0.37500  0.87500
  0.87500  0.62500  0.12500
  0.87500  0.62500  0.37500
  0.87500  0.62500  0.62500
  0.87500  0.62500  0.87500
  0.87500  0.87500  0.12500
  0.87500  0.87500  0.37500
  0.87500  0.87500  0.62500
  0.87500  0.87500  0.87500
  0.12500  0.12500  0.00000
  0.12500  0.12500  0.25000
  0.12500  0.12500  0.50000
  0.12500  0.12500  0.75000
  0.12500  0.37500  0.00000
  0.12500  0.37500  0.25000
  0.12500  0.37500  0.50000
  0.12500  0.37500  0.75000
  0.12500  0.62500  0.00000
  0.12500  0.62500  0.25000
  0.12500  0.62500  0.50000
  0.12500  0.62500  0.75000
  0.12500  0.87500  0.00000
  0.12500  0.87500  0.25000
  0.12500  0.87500  0.50000
  0.12500  0.87500  0.75000
  0.37500  0.12500  0.00000
  0.37500  0.12500  0.25000
  0.37500  0.12500  0.50000
  0.37500  0.12500  0.75000
  0.37500  0.37500  0.00000
  0.37500  0.37500  0.25000
  0.37500  0.37500  0.50000
  0.37500  0.37500  0.75000
  0.37500  0.62500  0.00000
  0.37500  0.62500  0.25000
  0.37500  0.62500  0.50000
  0.37500  0.62500  0.75000
  0.37500  0.87500  0.00000
  0.37500  0.87500  0.25000
  0.37500  0.87500  0.50000
  0.37500  0.87500  0.75000
  0.62500  0.12500  0.00000
  0.62500  0.12500  0.25000
  0.62500  0.12500  0.50000
  0.62500  0.12500  0.75000
  0.62500  0.37500  0.00000
  0.62500  0.37500  0.25000
  0.62500  0.37500  0.50000
  0.62500  0.37500  0.75000
  0.62500  0.62500  0.00000
  0.62500  0.62500  0.25000
  0.62500  0.62500  0.50000
  0.62500  0.62500  0.75000
  0.62500  0.87500  0.00000
  0.62500  0.87500  0.25000
  0.62500  0.87500  0.50000
  0.62500  0.87500  0.75000
  0.87500  0.12500  0.00000
  0.87500  0.12500  0.25000
  0.87500  0.12500  0.50000
  0.87500  0.12500  0.75000
  0.87500  0.37500  0.00000
  0.87500  0.37500  0.25000
  0.87500  0.37500  0.50000
  0.87500  0.37500  0.75000
  0.87500  0.62500  0.00000
  0.87500  0.62500  0.25000
  0.87500  0.62500  0.50000
  0.87500  0.62500  0.75000
  0.87500  0.87500  0.00000
  0.87500  0.87500  0.25000
  0.87500  0.87500  0.50000
  0.87500  0.87500  0.75000
  0.12500  0.00000  0.12500
  0.12500  0.00000  0.37500
  0.12500  0.00000  0.62500
  0.12500  0.00000  0.87500
  0.12500  0.25000  0.12500
  0.12500  0.25000  0.37500
  0.12500  0.25000  0.62500
  0.12500  0.25000  0.87500
  0.12500  0.50000  0.12500
  0.12500  0.50000  0.37500
  0.12500  0.50000  0.62500
  0.12500  0.50000  0.87500
  0.12500  0.75000  0.12500
  0.12500  0.75000  0.37500
  0.12500  0.75000  0.62500
  0.12500  0.75000  0.87500
  0.37500  0.00000  0.12500
  0.37500  0.00000  0.37500
  0.37500  0.00000  0.62500
  0.37500  0.00000  0.87500
  0.37500  0.25000  0.12500
  0.37500  0.25000  0.37500
  0.37500  0.25000  0.62500
  0.37500  0.25000  0.87500
  0.37500  0.50000  0.12500
  0.37500  0.50000  0.37500
  0.37500  0.50000  0.62500
  0.37500  0.50000  0.87500
  0.37500  0.75000  0.12500
  0.37500  0.75000  0.37500
  0.37500  0.75000  0.62500
  0.37500  0.75000  0.87500
  0.62500  0.00000  0.12500
  0.62500  0.00000  0.37500
  0.62500  0.00000  0.62500
  0.62500  0.00000  0.87500
  0.62500  0.25000  0.12500
  0.62500  0.25000  0.37500
  0.62500  0.25000  0.62500
  0.62500  0.25000  0.87500
  0.62500  0.50000  0.12500
  0.62500  0.50000  0.37500
  0.62500  0.50000  0.62500
  0.62500  0.50000  0.87500
  0.62500  0.75000  0.12500
  0.62500  0.75000  0.37500
  0.62500  0.75000  0.62500
  0.62500  0.75000  0.87500
  0.87500  0.00000  0.12500
  0.87500  0.00000  0.37500
  0.87500  0.00000  0.62500
  0.87500  0.00000  0.87500
  0.87500  0.25000  0.12500
  0.87500  0.25000  0.37500
  0.87500  0.25000  0.62500
  0.87500  0.25000  0.87500
  0.87500  0.50000  0.12500
  0.87500  0.50000  0.37500
  0.87500  0.50000  0.62500
  0.87500  0.50000  0.87500
  0.87500  0.75000  0.12500
  0.87500  0.75000  0.37500
  0.87500  0.75000  0.62500
  0.87500  0.75000  0.87500
  0.00000  0.12500  0.12500
  0.00000  0.12500  0.37500
  0.00000  0.12500  0.62500
  0.00000  0.12500  0.87500
  0.00000  0.37500  0.12500
  0.00000  0.37500  0.37500
  0.00000  0.37500  0.62500
  0.00000  0.37500  0.87500
  0.00000  0.62500  0.12500
  0.00000  0.62500  0.37500
  0.00000  0.62500  0.62500
  0.00000  0.62500  0.87500
  0.00000  0.87500  0.12500
  0.00000  0.87500  0.37500
  0.00000  0.87500  0.62500
  0.00000  0.87500  0.87500
  0.25000  0.12500  0.12500
  0.25000  0.12500  0.37500
  0.25000  0.12500  0.62500
  0.25000  0.12500  0.87500
  0.25000  0.37500  0.12500
  0.25000  0.37500  0.37500
  0.25000  0.37500  0.62500
  0.25000  0.37500  0.87500
  0.25000  0.62500  0.12500
  0.25000  0.62500  0.37500
  0.25000  0.62500  0.62500
  0.25000  0.62500  0.87500
  0.25000  0.87500  0.12500
  0.25000  0.87500  0.37500
  0.25000  0.87500  0.62500
  0.25000  0.87500  0.87500
  0.50000  0.12500  0.12500
  0.50000  0.12500  0.37500
  0.50000  0.12500  0.62500
  0.50000  0.12500  0.87500
  0.50000  0.37500  0.12500
  0.50000  0.37500  0.37500
  0.50000  0.37500  0.62500
  0.50000  0.37500  0.87500
  0.50000  0.62500  0.12500
  0.50000  0.62500  0.37500
  0.50000  0.62500  0.62500
  0.50000  0.62500  0.87500
  0.50000  0.87500  0.12500
  0.50000  0.87500  0.37500
  0.50000  0.87500  0.62500
  0.50000  0.87500  0.87500
  0.75000  0.12500  0.12500
  0.75000  0.12500  0.37500
  0.75000  0.12500  0.62500
  0.75000  0.12500  0.87500
  0.75000  0.37500  0.12500
  0.75000  0.37500  0.37500
  0.75000  0.37500  0.62500
  0.75000  0.37500  0.87500
  0.75000  0.62500  0.12500
  0.75000  0.62500  0.37500
  0.75000  0.62500  0.62500
  0.75000  0.62500  0.87500
  0.75000  0.87500  0.12500
  0.75000  0.87500  0.37500
  0.75000  0.87500  0.62500
  0.75000  0.87500  0.87500
  0.01987  0.01987  0.07989
  0.04030  0.05528  0.06546
  0.97901  0.01987  0.06546
  0.04030  0.98447  0.06546
  0.05771  0.01987  0.00648
  0.00095  0.05262  0.00648
  0.00095  0.98713  0.00648
  0.01987  0.01987  0.01987
