Pt
 1.0000000000000000
     5.6202399999999999    0.0000000000000000    0.0000000000000000
     0.0000000000000000    5.6202399999999999    0.0000000000000000
     0.0000000000000000    0.0000000000000000   16.8607200000000006
 Pt 
  17
Direct
  0.0000000000000000 -0.0000000000000001 -0.0039593169840922
  0.0000000000000000  0.5000000000000000 -0.0039194002010989
  0.5000000000000000 -0.0000000000000001 -0.0039063398920464
  0.5000000000000000  0.5000000000000000 -0.0039593169840923
  0.2498393406612546  0.2501606593387452  0.1151460041806850
  0.7501606593387455  0.2501606593387452  0.1151460041806850
  0.2498393406612547  0.7498393406612547  0.1151460041806850
  0.7501606593387458  0.7498393406612547  0.1151460041806849
  0.0000000000000000  0.0000000000000000  0.2382638762515054
  0.0000000000000000  0.5000000000000000  0.2345623420634714
  0.5000000000000000 -0.0000000000000001  0.2352635441160204
  0.5000000000000000  0.5000000000000000  0.2382638762515056
  0.4999999999999999  0.0000000000000000  0.4460930757154780
  0.7617541381812467  0.2617541381812467  0.3578279741897047
  0.2382458618187535  0.7382458618187532  0.3578279741897047
  0.7617541381812470  0.7382458618187532  0.3578279741897048
  0.2382458618187532  0.2617541381812469  0.3578279741897049
