Si
 1.0000000000000000
     5.4699999999999998    5.4699999999999998    0.0000000000000000
     0.0000000000000000    5.4699999999999998    5.4699999999999998
     5.4699999999999998    0.0000000000000000    5.4699999999999998
 Si 
  15
Direct
 -0.0002362596136736 -0.0002362596136736 -0.0002362596136736
  0.1255345770015735  0.1255345770015735  0.1255345770015735
 -0.0024302271308354 -0.0024302271308355  0.5019003076149782
  0.1254895922589587  0.1254895922589587  0.6224284175920060
 -0.0024302271308356  0.5019003076149783 -0.0024302271308353
  0.1254895922589585  0.6224284175920061  0.1254895922589586
 -0.0024053033704573  0.5018632912547514  0.5018632912547514
  0.1385986928914484  0.6201001674429256  0.6201001674429254
  0.5019003076149782 -0.0024302271308354 -0.0024302271308355
  0.6224284175920061  0.1254895922589586  0.1254895922589585
  0.5018632912547510 -0.0024053033704572  0.5018632912547509
  0.6201001674429251  0.1385986928914487  0.6201001674429250
  0.5018632912547510  0.5018632912547512 -0.0024053033704571
  0.6201001674429252  0.6201001674429253  0.1385986928914485
  0.6201585065308822  0.6201585065308816  0.6201585065308822
