Si
 1.0000000000000000
     5.4699999999999998    5.4699999999999998    0.0000000000000000
     0.0000000000000000    5.4699999999999998    5.4699999999999998
     5.4699999999999998    0.0000000000000000    5.4699999999999998
 Si 
  15
Direct
 -0.0005679858835830 -0.0005679858835829 -0.0005679858835831
  0.1258042033719965  0.1258042033719962  0.1258042033719962
 -0.0019658244578104 -0.0019658244578103  0.5032740127918861
  0.1263113844265718  0.1263113844265711  0.6214329570210873
 -0.0019658244578104  0.5032740127918863 -0.0019658244578103
  0.1263113844265716  0.6214329570210875  0.1263113844265713
 -0.0204658871371216  0.5029036973077824  0.5029036973077823
  0.1378614786198532  0.6205849245122010  0.6205849245122010
  0.5032740127918863 -0.0019658244578101 -0.0019658244578103
  0.6214329570210877  0.1263113844265715  0.1263113844265714
  0.5029036973077829 -0.0204658871371205  0.5029036973077826
  0.6205849245122013  0.1378614786198555  0.6205849245122009
  0.5029036973077826  0.5029036973077829 -0.0204658871371204
  0.6205849245122009  0.6205849245122012  0.1378614786198558
  0.5805996465044351  0.5805996465044312  0.5805996465044310
