Si
 1.0000000000000000
     5.4699999999999998    5.4699999999999998    0.0000000000000000
     0.0000000000000000    5.4699999999999998    5.4699999999999998
     5.4699999999999998    0.0000000000000000    5.4699999999999998
 Si 
  15
Direct
 -0.0003489018158272 -0.0003489018158286 -0.0003489018158265
  0.1255399933163568  0.1255399933163564  0.1255399933163572
 -0.0020225345414373 -0.0020225345414370  0.5031375431464882
  0.1262178085241879  0.1262178085241875  0.6218264373244817
 -0.0020225345414372  0.5031375431464886 -0.0020225345414374
  0.1262178085241877  0.6218264373244834  0.1262178085241868
 -0.0212559505286165  0.5030406252693889  0.5030406252693890
  0.1375767888873217  0.6210672866698617  0.6210672866698620
  0.5031375431464890 -0.0020225345414375 -0.0020225345414370
  0.6218264373244823  0.1262178085241896  0.1262178085241856
  0.5030406252693885 -0.0212559505286163  0.5030406252693899
  0.6210672866698622  0.1375767888873229  0.6210672866698620
  0.5030406252693892  0.5030406252693876 -0.0212559505286149
  0.6210672866698617  0.6210672866698624  0.1375767888873227
  0.5805501987720629  0.5805501987720605  0.5805501987720605
