Pt
 1.0000000000000000
     5.6202399999999999    0.0000000000000000    0.0000000000000000
     0.0000000000000000    5.6202399999999999    0.0000000000000000
     0.0000000000000000    0.0000000000000000   16.8607200000000006
 Pt 
  17
Direct
  0.0032416151749604 -0.0024403385351735 -0.0003870786658107
  0.0022674694646642  0.4977325305353343 -0.0003559968741531
  0.5027881137013375 -0.0027881137013356 -0.0006368876020154
  0.5024403385351753  0.4967583848250382 -0.0003870786658113
  0.2540224388687799  0.2459775611312165  0.1144915448200166
  0.7544436266796811  0.2452481273138535  0.1157580286977085
  0.2547518726861450  0.7455563733203234  0.1157580286977115
  0.7533984098786521  0.7466015901213494  0.1150475095368269
  0.0100390627143751 -0.0071245914047094  0.2334701292655285
  0.0109272258802724  0.4890727741197328  0.2335994481301484
  0.5022701090057766 -0.0022701090057962  0.2346491769445705
  0.5071245914047008  0.4899609372856423  0.2334701292655309
  0.3491773259436133  0.1508226740563769  0.3927509671071821
  0.7710421502579923  0.2322604435707764  0.3461622132753349
  0.2677395564292470  0.7289578497420306  0.3461622132753277
  0.7554191313373653  0.7445808686626274  0.3524582883497242
  0.0478538933424605  0.4521461066575174  0.4365876182603902
