Pt
 1.0000000000000000
     5.6202399999999999    0.0000000000000000    0.0000000000000000
     0.0000000000000000    5.6202399999999999    0.0000000000000000
     0.0000000000000000    0.0000000000000000   16.8607200000000006
 Pt 
  17
Direct
  0.0027586886974630 -0.0004267768357145 -0.0058242193985026
  0.0025719057008696  0.4974280942991288 -0.0058744651117617
  0.5003477645853127 -0.0003477645853111 -0.0059157418248894
  0.5004267768357158  0.4972413113025348 -0.0058242193985055
  0.2536650720119840  0.2463349279880034  0.1143081973097466
  0.7522791095778086  0.2460280062342337  0.1147347013026296
  0.2539719937657587  0.7477208904222047  0.1147347013026345
  0.7515932012235991  0.7484067987764093  0.1098131260532425
  0.0088080767005261 -0.0081970686141966  0.2357847175223550
  0.0112373334826502  0.4887626665173577  0.2330553888557027
  0.5011202395839108 -0.0011202395839534  0.2366453617630788
  0.5081970686141817  0.4911919232995099  0.2357847175223596
  0.3507425607303468  0.1492574392696178  0.3959636741596593
  0.7735514102563158  0.2329927291279532  0.3499963131115255
  0.2670072708721113  0.7264485897437595  0.3499963131115064
  0.7554169804655604  0.7445830195344246  0.3590479207559839
  0.0486099654696370  0.4513900345302883  0.4421717667814451
