# MD general
IBRION = 0              # Molecular dynamics mode
NSW    = 500            # Number of MD steps
TEBEG  = 300            # Starting temperature (K)
POTIM  = 1              # MD timestep (fs)
NBLOCK = 1              # Write XDATCAR every N steps
ISIF   = 3              # Variable cell (NPT)

# Thermostat / barostat
MDALGO           = 3              # Langevin thermostat/barostat
LANGEVIN_GAMMA   = 10.0 20.0      # Atomic friction per species (ps^-1), POSCAR order
LANGEVIN_GAMMA_L = 10.0           # Lattice friction coefficient (ps^-1)
PMASS            = 50000          # Barostat piston mass (amu)
