# MD general
IBRION = 0
NSW    = 500 
TEBEG  = 300
POTIM  = 1 
NBLOCK = 1
ISIF = 2 

# Thermostat
MDALGO = 3
LANGEVIN_GAMMA = 10.0 20.0    # Pb: 10 ps^-1, Te: 20 ps^-1
