Pb Te
 1.0000000000000000
    25.8479999999999990    0.0000000000000000    0.0000000000000000
     0.0000000000000000   25.8479999999999990    0.0000000000000000
     0.0000000000000000    0.0000000000000000   25.8479999999999990
 Pb  Te 
 256 256
Direct
 -0.0099293313401794 -0.0057556804909788 -0.0026366944125809
 -0.0030631843670818  0.0019092123316746  0.2395244036558722
  0.0026675801849036 -0.0029251667869681  0.4950941241268348
  0.0019628049620692 -0.0070940159798934  0.7378044821367942
  0.0005509106531786  0.2611491927018514 -0.0036555626751980
 -0.0147199663363980  0.2467719218535365  0.2467588761475775
 -0.0125223247960788  0.2463973810753763  0.4979896406411765
 -0.0008767300693773  0.2485325270755354  0.7471687888078112
 -0.0031926522257481  0.5001520457074472  0.0040542859168068
  0.0031777952110198  0.4961383704643136  0.2469165189333438
  0.0017231182840222  0.4920519197000901  0.5013307957103452
  0.0074196066019961  0.5070347342808569  0.7504097130879067
  0.0034438627744726  0.7567880936978374  0.0081067148437867
  0.0015045675548799  0.7598252801239547  0.2470748700341786
  0.0009161029448541  0.7319970113227721  0.4968164784444553
  0.0058959781445262  0.7457606705815125  0.7487879500171235
  0.2429488903912141 -0.0015229131271847  0.0045259648759807
  0.2566992726770163  0.0112617594276136  0.2444566500833961
  0.2524123673182441 -0.0128790762997376  0.4979099780003541
  0.2499351386251641  0.0073646362377078  0.7497526416448484
  0.2511318226479234  0.2391579731393731 -0.0032748116423456
  0.2453200327446183  0.2442821663917584  0.2532822511553267
  0.2435035744855716  0.2477347012320806  0.4951505091230232
  0.2415159704470526  0.2507992976277877  0.7542529078759067
  0.2506845352091910  0.5079938002818120 -0.0012187840538104
  0.2489101995692850  0.4995939223585102  0.2485579962804398
  0.2420417865097705  0.4961748241147755  0.5018910558106827
  0.2435172084196241  0.5050651037345236  0.7500801811126263
  0.2443826351719322  0.7503180543962684 -0.0037089925018304
  0.2440956148749992  0.7440367361502156  0.2544173924359119
  0.2513799838616205  0.7445674172035824  0.5115690104740823
  0.2469929350910442  0.7520173432373423  0.7479120608425069
  0.4896536531112321  0.0047990189438181 -0.0044928173983862
  0.5021217083887766 -0.0007346703389775  0.2553619839822636
  0.5147767374625373 -0.0053376838402749  0.5037397957432355
  0.5100183470286354 -0.0031261381070052  0.7530077428859394
  0.4993762745521206  0.2490079321800912  0.0029108185889965
  0.4983249149330537  0.2537733728718062  0.2594394004189919
  0.4921156780555747  0.2434803569755564  0.5023718902929781
  0.5002726388113644  0.2552512886421965  0.7574329468018454
  0.5001371967335638  0.4965670495515915  0.0017392118014713
  0.5093864989857622  0.4995611426049916  0.2477670823833686
  0.5024466821178744  0.4992542748512561  0.4908503386528211
  0.4944108403439210  0.5012066313617133  0.7460215451375720
  0.5008502276338583  0.7517664448383666 -0.0013881708072712
  0.5018132407892828  0.7497904792349065  0.2530291868078148
  0.5007442083085394  0.7496857188743464  0.5137887309053926
  0.4953284883647221  0.7472558148713357  0.7549992604769252
  0.7491561219721259  0.0016387815516650 -0.0004371649900312
  0.7388038277729917  0.0083262879056147  0.2420159602761914
  0.7532826698939806 -0.0025146571383507  0.4954028218558487
  0.7550214793324105 -0.0020182387926169  0.7439879817542904
  0.7479003234835891  0.2462060068955738 -0.0029892651623933
  0.7395872707914657  0.2567346936566917  0.2541095217638695
  0.7432676359243263  0.2528272901644981  0.4956389221516488
  0.7528874800190110  0.2464175479953519  0.7500502020806019
  0.7452643801145434  0.5003219388277118 -0.0058637277533447
  0.7503243506511745  0.5006459731359325  0.2434393764691856
  0.7508680355205186  0.5033617688502207  0.4941924131953687
  0.7534807032052260  0.4981968494186961  0.7549858921761797
  0.7526469575370672  0.7477036315656489 -0.0016909937048851
  0.7527221332994578  0.7508148093229938  0.2486286662930841
  0.7500823595202882  0.7470836286374393  0.5037257684026850
  0.7448264327085535  0.7546999701150920  0.7510452131693546
  0.0014943405055303  0.1298081164858739  0.1230418696853485
 -0.0021712058135316  0.1274285968724505  0.3759768418556453
 -0.0008547621699829  0.1303218573614909  0.6269822976246084
 -0.0045993667899653  0.1148816545221863  0.8822215714317075
 -0.0012472930254364  0.3757998142381858  0.1298993104100211
 -0.0066020679564304  0.3766931751653494  0.3804034877686994
  0.0054795626644606  0.3721254783344809  0.6266199572909447
 -0.0004630055996013  0.3705209102802853  0.8791310891093448
  0.0006473593966875  0.6287525035374392  0.1314258664786213
 -0.0002346594093363  0.6336565581647565  0.3769981876550136
  0.0013232324949360  0.6261389199905085  0.6356136130390393
  0.0031737438783380  0.6312017829144014  0.8869017602556141
 -0.0038117330004038  0.8900316562496989  0.1258893695059728
 -0.0060831828375242  0.8714073565001805  0.3853687620404707
 -0.0004136235458538  0.8781445237302772  0.6339311910047942
 -0.0000652976138056  0.8719314974460725  0.8787447557569356
  0.2441135771317818  0.1229653321324084  0.1227729475691465
  0.2467241933145337  0.1196227841934056  0.3808137144141553
  0.2549953996287518  0.1222303293750814  0.6219058716968632
  0.2449168055268486  0.1240794814470207  0.8793603769861535
  0.2478158698152782  0.3817478172104572  0.1247443581421224
  0.2524512728456817  0.3687972216462965  0.3708699043342920
  0.2521422563396916  0.3676024927571016  0.6264859880209049
  0.2427378886330829  0.3791389643444690  0.8726218577086381
  0.2454547544048023  0.6338730593947981  0.1208120610047971
  0.2582082896831952  0.6243331057842779  0.3635605732409941
  0.2484668958822567  0.6243926260876725  0.6199008823526405
  0.2508031494002934  0.6252312826332840  0.8746250461595185
  0.2488061150852537  0.8740651559378246  0.1248538334080388
  0.2430600686531063  0.8716816472744120  0.3679296996362475
  0.2535243894661827  0.8753740253632185  0.6245640748932935
  0.2494675460873274  0.8736685450036590  0.8791040577051907
  0.4850359463240041  0.1235774965518149  0.1222643406128677
  0.4977439533780962  0.1287598178069730  0.3760414904734677
  0.4977108456085726  0.1182819063185276  0.6248696564917893
  0.4960728789751718  0.1218423523169613  0.8720076523599813
  0.5011428590178101  0.3703539658103889  0.1295236060498146
  0.5022083307645363  0.3756816534130759  0.3702934670389865
  0.5050155626178725  0.3675104997833347  0.6261667708952376
  0.4992904811916297  0.3776545584306471  0.8775448512717808
  0.4973932535343674  0.6228575338515386  0.1178029264262477
  0.4996724604937296  0.6202708354594760  0.3681128884485476
  0.4993060710449073  0.6234402493001767  0.6239039069764872
  0.4973017397631776  0.6291788991806468  0.8774008444805619
  0.4965424941194647  0.8792665546729125  0.1294061614081126
  0.4902817850219560  0.8706720424430104  0.3732532677425514
  0.4993283735805770  0.8834191499183427  0.6321213390075405
  0.5029277336583390  0.8731657457564975  0.8818879845617125
  0.7499895510534160  0.1235966743478951  0.1242114554282180
  0.7493058894524957  0.1298361459624883  0.3736534126593343
  0.7497947010402407  0.1342110038157914  0.6242967655190352
  0.7512957853452386  0.1134329780175752  0.8628519599129924
  0.7532546889667511  0.3739378299169022  0.1256300096084554
  0.7448666526089044  0.3775648166438780  0.3787282311057789
  0.7594054382818777  0.3815463453032911  0.6238890651910698
  0.7419982143528525  0.3696143863953162  0.8775687124629968
  0.7546080976310479  0.6287186319017609  0.1222648211440788
  0.7549525369623424  0.6211586145130789  0.3722040768086683
  0.7539441279809591  0.6225658387991124  0.6245780268200336
  0.7583004084434068  0.6128463636872500  0.8770491497376225
  0.7438524845937285  0.8759729949971354  0.1270787492392823
  0.7482909662984497  0.8705604990066688  0.3729261024525166
  0.7480569672725428  0.8787765324262055  0.6208861299564400
  0.7542144345374324  0.8665538248448580  0.8846977127857087
  0.1263635304129917 -0.0025059626086719  0.1287720813126721
  0.1202925115654313 -0.0056543689123546  0.3685285792785937
  0.1199656305796293  0.0056063496946462  0.6231768565421913
  0.1220658822902829 -0.0047198079250489  0.8710996197704118
  0.1253012417236434  0.2595455751041520  0.1247188118134322
  0.1356120692191602  0.2518323799438654  0.3787911714321445
  0.1249033530370601  0.2525925595604637  0.6320099065610332
  0.1192460353810269  0.2441931439738572  0.8744771822717290
  0.1249225741423569  0.5041367669210808  0.1247336862003339
  0.1260940085220943  0.5052948267620584  0.3806710792468461
  0.1261204014450073  0.4963950445549952  0.6219152636694085
  0.1281840418519291  0.4904121497909504  0.8685548725570686
  0.1233544218357977  0.7452601654108529  0.1290632652118476
  0.1272195674941082  0.7442310352623879  0.3778123570446646
  0.1198900510592272  0.7462364544497927  0.6153864324988322
  0.1230367974174619  0.7439384002937716  0.8729392411331393
  0.3740990360881364  0.0070088352099720  0.1242968889093960
  0.3793291103083945 -0.0002094114443516  0.3799843489225485
  0.3701130877231989  0.0017553402386904  0.6247795218061674
  0.3690467727630715  0.0023284880435405  0.8724379028269995
  0.3695149138101979  0.2521656045143372  0.1196796821672889
  0.3763571757432219  0.2541486478196046  0.3755818359914778
  0.3672056982186809  0.2555048431206977  0.6290594662445715
  0.3783264445209679  0.2525267318988029  0.8695843282608243
  0.3738899111422128  0.5044977661698958  0.1257756208117568
  0.3663523357275816  0.5025794174457906  0.3768709112122250
  0.3733229940985610  0.4984678203401628  0.6225311068776239
  0.3663862565217167  0.5026979699896571  0.8717891410960649
  0.3850305152999439  0.7591479042990048  0.1226216529009057
  0.3783563792494402  0.7556429631723519  0.3759515027010715
  0.3695510420380468  0.7464651190526913  0.6279886251770015
  0.3788279168972437  0.7505767156071694  0.8693261687706756
  0.6176232938884446  0.0032940798189861  0.1228365179263560
  0.6299303656002228  0.0052744024384284  0.3770843378264046
  0.6322326604953571 -0.0039450536011292  0.6225463185950907
  0.6214988297747082  0.0006849324350808  0.8781699890978261
  0.6292861045911201  0.2589202110183056  0.1224391129650808
  0.6199014017408379  0.2585067869754048  0.3824358466798692
  0.6238396490582795  0.2535313416895739  0.6320116629028963
  0.6183305520078968  0.2505348599867180  0.8725265639614987
  0.6235513949975934  0.5086375221750850  0.1162065745621625
  0.6179797781597594  0.5032383115345509  0.3635147930831265
  0.6263930838126993  0.5094177498460705  0.6184717066122630
  0.6217256459413824  0.5045322359282322  0.8677293442214863
  0.6411430426925753  0.7522112603873017  0.1257653546742936
  0.6184427993724327  0.7486445350023642  0.3857549431310938
  0.6220172231873128  0.7545852041844300  0.6360630290463497
  0.6333683210808844  0.7479290924386203  0.8735695130796015
  0.8696133731551742 -0.0005570592085410  0.1309597449802207
  0.8734949680300580 -0.0056896964802454  0.3720695686282009
  0.8816204765207671 -0.0039181573231299  0.6219756235738687
  0.8689875784579859 -0.0072506401733108  0.8822422947887327
  0.8717377764923692  0.2470160780037632  0.1261509625794997
  0.8739580192910760  0.2461108613433776  0.3870453746650438
  0.8705858129126388  0.2555943861083715  0.6297065108532452
  0.8655073591960034  0.2486771380853403  0.8731510870691459
  0.8762022009435223  0.5043910145465698  0.1187353474634110
  0.8713759133911235  0.5043529655539843  0.3762548226848069
  0.8716893604050915  0.5022236188049862  0.6251299825258397
  0.8859399874590853  0.4953365518207928  0.8731808279416887
  0.8824033545811748  0.7426687153054168  0.1268008919314127
  0.8680451902746820  0.7522261802398487  0.3749644600765053
  0.8768169231346454  0.7427670811579572  0.6247657263127605
  0.8810164998933908  0.7410668115652529  0.8795515462570829
  0.1281373551197367  0.1267585830493235  0.0046120620844587
  0.1243940354732174  0.1258783695527318  0.2496360176843269
  0.1281110067275749  0.1240183734667754  0.5001835774780851
  0.1280010583303009  0.1233768048559360  0.7583234847414156
  0.1236239657972975  0.3851444697885943  0.0061715506583222
  0.1170080055719614  0.3757977589660906  0.2519025741191295
  0.1306037236952295  0.3767019098979382  0.5056245100606757
  0.1215683481452014  0.3656678644594183  0.7492486693041043
  0.1141104120791105  0.6265621425304659 -0.0048708898286692
  0.1214839059511343  0.6237436147061587  0.2525918184767102
  0.1288429064098906  0.6265877556691922  0.5016210948350273
  0.1322545506598438  0.6245312834115074  0.7509061244058535
  0.1248735337190506  0.8764852332364181 -0.0085811196148497
  0.1147449600816413  0.8737400016473584  0.2487454529786867
  0.1323592776222570  0.8709721228911770  0.4972340819131829
  0.1176182238695039  0.8723569627946877  0.7404529095483644
  0.3796577041902927  0.1272467377042833  0.0034901231844242
  0.3710099640383741  0.1236653248824959  0.2544890025873112
  0.3723324638114914  0.1264277179575532  0.5057008665646726
  0.3753691152590284  0.1297981989347251  0.7515091179510783
  0.3656005435039066  0.3799668642740186 -0.0064739573800202
  0.3693921606896702  0.3710432416632489  0.2482785387294654
  0.3726596578783200  0.3663747879013848  0.4942488626041704
  0.3784147991594488  0.3708138208517054  0.7466237620751793
  0.3679553721593820  0.6257129207134327 -0.0046830604701607
  0.3734783054494921  0.6259037956187428  0.2435079981770659
  0.3734959766512820  0.6303335277993695  0.4877555579895897
  0.3769195346121275  0.6199039477235788  0.7455486828501523
  0.3725993235106253  0.8731064963377182 -0.0022547837897853
  0.3665000336143615  0.8767696963650168  0.2412465115907858
  0.3747028614599368  0.8805878993934281  0.4967341108618855
  0.3734306686775562  0.8753996302035381  0.7511809289439476
  0.6276271648429358  0.1229434751835080 -0.0032840773668358
  0.6238160022367308  0.1243542151797416  0.2390030774745936
  0.6211214293167056  0.1320621472393686  0.4989143322574690
  0.6260772731864506  0.1189546898909560  0.7503328063883928
  0.6209159190759794  0.3774128906679106 -0.0010982842129560
  0.6254286221979548  0.3778903798184208  0.2467300954578572
  0.6230258337405704  0.3772533672296546  0.5031844616366639
  0.6315129034634591  0.3666527585900567  0.7462973966962413
  0.6176599882826415  0.6307445864668245  0.0094112797871855
  0.6194543842229481  0.6319872796845558  0.2521748611185614
  0.6262435993240384  0.6217236796218074  0.4943684005356195
  0.6272671115365681  0.6197934868621757  0.7476765824464057
  0.6199559149848152  0.8750569287306772  0.0028915871226274
  0.6202828948080926  0.8710333563962057  0.2611153510246820
  0.6319729842131995  0.8750046693282052  0.5007481266972099
  0.6283353690084057  0.8760291222105560  0.7532422321256057
  0.8744678651779746  0.1232357607078577 -0.0046551533976296
  0.8750170340381787  0.1262369680464568  0.2510880135164557
  0.8741710756129909  0.1223139239140291  0.5048223592295401
  0.8808099891249060  0.1195095404702304  0.7498894710501950
  0.8736960306787367  0.3698267340861954  0.0078492044476260
  0.8691175928712149  0.3666548629310133  0.2574027555021267
  0.8741689906825573  0.3819061558603336  0.5023951243789549
  0.8775642471471206  0.3772638860016273  0.7514758322426572
  0.8695906080163129  0.6222891097632913  0.0011745084063715
  0.8811845029290698  0.6211328978185749  0.2484049098493938
  0.8794294628690963  0.6220908906545561  0.4942682417356775
  0.8748483805868071  0.6200952346147776  0.7587785324283043
  0.8719867497244848  0.8826689633821087 -0.0103581366276619
  0.8716152383947831  0.8735936610093110  0.2435619493566310
  0.8743022750633908  0.8726710781441259  0.4915459059943715
  0.8769084918221403  0.8719666196894811  0.7431785981699796
  0.1247260500115052  0.1213391621942874  0.1271990879512808
  0.1317262176702564  0.1192264576144333  0.3725312995469228
  0.1297821912329160  0.1299404209581332  0.6268900345380266
  0.1209094012034236  0.1195370501496192  0.8815634651898820
  0.1225524846650208  0.3783647567273954  0.1287077798515843
  0.1302374988738577  0.3714765411521685  0.3809280221385725
  0.1297429720360034  0.3774917359743349  0.6342673179086864
  0.1224427143195584  0.3718813995509044  0.8704571565755600
  0.1224442843230648  0.6230799534050250  0.1182376806665959
  0.1305663594660537  0.6258105534269461  0.3697728454354406
  0.1284652602015435  0.6236017079919854  0.6216140690230947
  0.1217000426482982  0.6178838148875146  0.8741684262967152
  0.1234882777348722  0.8780814616204115  0.1177989631562281
  0.1201986540045274  0.8652538012127873  0.3720458025973771
  0.1151473347520670  0.8707044643396370  0.6202584953574497
  0.1282574065019550  0.8682609897854087  0.8703511100896584
  0.3690762574692819  0.1257453581464181  0.1300732315065978
  0.3793483792301733  0.1327603899483564  0.3764420379869990
  0.3759269301684159  0.1311989177432659  0.6270782942710736
  0.3692640279113134  0.1242162837943246  0.8744813417707527
  0.3708972076661369  0.3733047576116838  0.1224240417528253
  0.3772844019179003  0.3786310969902575  0.3747503117090751
  0.3761983691952480  0.3749337783173318  0.6250217697715581
  0.3831336176361647  0.3765831704116597  0.8693542094402792
  0.3618033585644705  0.6240249502175367  0.1255452686601130
  0.3802887804952834  0.6258913727974241  0.3747657860968522
  0.3697300592734359  0.6221184185391004  0.6232904719612697
  0.3768621156233194  0.6306487434721916  0.8704179887724125
  0.3732255480726492  0.8776178591114547  0.1181680539216296
  0.3702031884532438  0.8736243248519033  0.3737111357971371
  0.3752986080409623  0.8839417536114830  0.6204562519622984
  0.3788020651463197  0.8716324657525142  0.8740963509461575
  0.6319978455516926  0.1229011412396206  0.1240684946083159
  0.6294118312174590  0.1297319926496468  0.3756365040915576
  0.6225823456701557  0.1302809713474513  0.6163048231771570
  0.6222084347115017  0.1239793900868046  0.8768666745291427
  0.6216202789105644  0.3742829317035617  0.1194942741305240
  0.6254465846824510  0.3794690211090753  0.3788994415577293
  0.6308841333637211  0.3827316235328726  0.6263429290617030
  0.6280335024016167  0.3767930911777315  0.8749096190947460
  0.6264927165925810  0.6336028264380092  0.1284220781297202
  0.6223895157225177  0.6264413614368594  0.3719728230155900
  0.6230322298191938  0.6310021379402456  0.6204165172028865
  0.6238122273047050  0.6249376821796800  0.8761044053868042
  0.6222155089055357  0.8736602938637459  0.1260374958452618
  0.6190294388104182  0.8742572087919983  0.3806777347253263
  0.6247478882128299  0.8728038171974664  0.6280399546826089
  0.6269763918391172  0.8748934567316270  0.8783162234302692
  0.8781375350130205  0.1233094074494827  0.1278870961316454
  0.8790001047712427  0.1167359368493911  0.3806509067260016
  0.8768664525388907  0.1276091473679851  0.6322587308519048
  0.8746162055681658  0.1152671828111269  0.8753230799666732
  0.8709762921555633  0.3664007152255073  0.1254496939370702
  0.8780852421027218  0.3690379876039991  0.3803272987053871
  0.8781127628797943  0.3735096656574226  0.6303919108397181
  0.8737989120608801  0.3689253338684706  0.8766436702163293
  0.8743012680112136  0.6228171680068203  0.1280888637629117
  0.8769586454815925  0.6216602293602466  0.3697997392623112
  0.8764836311036808  0.6244297411854534  0.6266046400572658
  0.8817616950751087  0.6135164635326976  0.8860894321852437
  0.8715698470958433  0.8728815457025330  0.1262394976420962
  0.8718593769566376  0.8747119475708324  0.3739444041120541
  0.8675034921986901  0.8811593285792455  0.6225204486049680
  0.8822211847316869  0.8623995190813361  0.8743060375401006
  0.1234436438078753  0.0056749151539160  0.0002145793127688
  0.1294593318819915 -0.0049724084016412  0.2498677216520495
  0.1181206989665086 -0.0012519102488939  0.4993314073362515
  0.1265818481832281 -0.0076585364637976  0.7472840601806227
  0.1289477115238443  0.2598786351832919  0.0033191115576848
  0.1191283211689928  0.2439204914435388  0.2519279190266757
  0.1251924417069122  0.2521747102963205  0.4997273862448917
  0.1223986602266725  0.2450185665117816  0.7564949580786163
  0.1200629645963758  0.5063381530857769 -0.0021412856798070
  0.1323354898105178  0.4933172849213544  0.2505183296056180
  0.1205721298666458  0.5039739795349268  0.5002086081666320
  0.1290632435727096  0.5032714575159443  0.7437175731533365
  0.1275492891303177  0.7561456411893132 -0.0039459526469169
  0.1262722421527677  0.7552272410138833  0.2475651110513234
  0.1236232138506497  0.7509214449490826  0.4945424235620596
  0.1252811247822148  0.7454420184950731  0.7468010746502393
  0.3661785566734749 -0.0004876109637004  0.0029912272899620
  0.3781993316571086 -0.0015640086573968  0.2507377181030543
  0.3691792747786488 -0.0016383911173359  0.4939068736978033
  0.3795416834328254  0.0042253626908815  0.7529963105546494
  0.3751006532612852  0.2525545022810354 -0.0064579258493673
  0.3676556060604625  0.2472930652994964  0.2496239414638471
  0.3684165544764736  0.2453891898713245  0.5019783570935390
  0.3626511703869641  0.2539056179122212  0.7520906716335164
  0.3703279289618961  0.5000805451666566  0.0025893015425350
  0.3857008504247386  0.4946260168057245  0.2516364460093466
  0.3776506229270278  0.5005627754329133  0.5005069467495277
  0.3786764374567113  0.5021630224909043  0.7483106618419777
  0.3786458902392558  0.7489662664074912 -0.0008499368016863
  0.3733273641575943  0.7470201050237292  0.2567771238471494
  0.3765871693453461  0.7499203740421725  0.5012934275477465
  0.3815179021782761  0.7484273284372408  0.7488781409087139
  0.6298230464454337 -0.0049335100100983  0.0027070931930277
  0.6191679116074876 -0.0016843655224419  0.2468075037132806
  0.6301438612039701  0.0062710425787383  0.5059941225767436
  0.6286570539522046 -0.0008201280502018  0.7568561778353592
  0.6287501984657111  0.2593012671065353 -0.0116702939398657
  0.6206833736173905  0.2589849935987921  0.2516065030169589
  0.6199342486520845  0.2552100097553561  0.5100097005117235
  0.6269359873930167  0.2394930893646867  0.7474118731590969
  0.6212852956543444  0.5047021977531558 -0.0022845968922078
  0.6341335960356590  0.5084093375280575  0.2447191750509351
  0.6342388985201471  0.5030217238945295  0.4977596622191167
  0.6303918095112819  0.4983721908402081  0.7453833763191237
  0.6288011956047386  0.7476418632900925  0.0001793670455550
  0.6270491452691835  0.7545957472208367  0.2487857169218468
  0.6227630946366851  0.7494043723947583  0.5100778317878412
  0.6242411542798595  0.7563463684790223  0.7597816379744005
  0.8704375420844419 -0.0003832901890040  0.0053858658408179
  0.8777686471731072  0.0026558599780387  0.2537911543824174
  0.8753467586958975 -0.0045103847856308  0.4977792455626807
  0.8762112443278691 -0.0024411603617252  0.7477905613935950
  0.8761493336983850  0.2405399036339155 -0.0049759342301785
  0.8705376243165293  0.2515206835240434  0.2583178948514373
  0.8699247832056917  0.2482631483439768  0.5039647695526922
  0.8734414381446812  0.2523756121050521  0.7528106463889855
  0.8641683464911589  0.4939319237827757 -0.0107831961376652
  0.8726635037035115  0.4993816071581935  0.2434367474290059
  0.8807007955154600  0.5037265334294750  0.4979072835850469
  0.8821451087954539  0.5004876136110503  0.7495024345362687
  0.8765931469375414  0.7461244046316635  0.0072571197520801
  0.8769193258319627  0.7507305163686194  0.2570620270940107
  0.8717045863526564  0.7415278772731576  0.4987083769113879
  0.8796357333509911  0.7516745509827563  0.7547835511606288
 -0.0027459851874320  0.1216862240464609 -0.0021128144369406
 -0.0014798987437024  0.1198637159512480  0.2444724491966527
  0.0007624561562730  0.1166755754284621  0.4946004999447000
  0.0022729222067022  0.1131132360027192  0.7499178029594054
  0.0017576299206305  0.3740696928783586  0.0070916900121370
 -0.0058145246161139  0.3831415873211646  0.2553946983993010
  0.0108860652044658  0.3674033116949934  0.5051147554812874
 -0.0016927892552524  0.3722453936371372  0.7501954251675044
 -0.0084546763668995  0.6307739168184640  0.0009805471182437
  0.0029724897637330  0.6252230396867897  0.2516737557469511
  0.0082539419008835  0.6129510835584087  0.5089774922898304
 -0.0035887083828090  0.6309325758839416  0.7542496315077154
 -0.0040897730336747  0.8755209913187570  0.0016059654867265
 -0.0033962911120021  0.8741042825593086  0.2522523463934476
  0.0002704869271459  0.8578498832465556  0.4984067662592546
 -0.0026242685891333  0.8683435800697707  0.7543501489033047
  0.2465720532917100  0.1224302476133639  0.0014353639162208
  0.2519546864867914  0.1240530493768240  0.2489478248653628
  0.2524070012111826  0.1163803690683637  0.5002120872094129
  0.2546190463343909  0.1237414203208654  0.7527453354914477
  0.2492804584288797  0.3863020894027723  0.0030753866170767
  0.2415569394831284  0.3745423262002378  0.2482346362085679
  0.2581913687535513  0.3705283478075881  0.4982041360082513
  0.2468897055932212  0.3775586440575579  0.7475701650297542
  0.2455342745338430  0.6227167888529009 -0.0080173040634227
  0.2463708799409443  0.6230211664197898  0.2397414559823196
  0.2529231154657292  0.6251394165739068  0.4922380696618792
  0.2550701246153373  0.6318555161250081  0.7472100630884868
  0.2517573932698683  0.8761333023873968  0.0025534447855581
  0.2509573259299742  0.8696610529528627  0.2497386055295158
  0.2543642167218583  0.8711451695723953  0.5025234711675239
  0.2490916968933346  0.8781155130566175  0.7530186629936627
  0.5038788663117871  0.1250281518327280 -0.0072914286394434
  0.5005777199327883  0.1215284918995181  0.2472140306042048
  0.4983752380911584  0.1196391360719898  0.4982776119654615
  0.5027222666844436  0.1304154195673377  0.7465700792551682
  0.5068679029383217  0.3753271342116832 -0.0041791954048791
  0.4909090756321638  0.3692154734251367  0.2504819911690057
  0.5006781228965426  0.3758173634752113  0.4940220070497149
  0.5074078752418631  0.3789628461752058  0.7530635052836060
  0.4999563777868260  0.6260898813515892 -0.0013234044080678
  0.4945819110394821  0.6250013311605142  0.2461819632841352
  0.5073535152450475  0.6229522997709583  0.5017637241575488
  0.4998570744232237  0.6210017388082294  0.7527469831701055
  0.4990750939921259  0.8760914655839233  0.0030885160363962
  0.4964015603102387  0.8728566433932855  0.2505459547173681
  0.5040824200153230  0.8723313965724653  0.4994530285256827
  0.5022149961758121  0.8686582722267553  0.7499584810501487
  0.7538573448259192  0.1251372820067467 -0.0045701569591582
  0.7510735431578034  0.1263009235786654  0.2522940698385728
  0.7528691252536012  0.1271126579990657  0.5009342908059592
  0.7562464695454727  0.1234938021700051  0.7461159963040946
  0.7512967128763059  0.3697924333648239  0.0009075874774256
  0.7492029584234968  0.3777050913903693  0.2497162763636499
  0.7525735309966884  0.3754795066194591  0.4979006224454682
  0.7534628284412367  0.3734599424698088  0.7447342737723793
  0.7412087109137324  0.6247152044419748  0.0001998190922771
  0.7499930113534603  0.6247219340865837  0.2503948813869294
  0.7517180277735255  0.6311036539181184  0.4925060826953613
  0.7482428117995283  0.6310570751708408  0.7505994633539688
  0.7514309087013266  0.8782620839057427 -0.0014683090790559
  0.7445214544072231  0.8804552494512959  0.2517488894485198
  0.7537227015881170  0.8784420655344025  0.4957624900228833
  0.7509114913495891  0.8750821509629866  0.7532134919040950
  0.0010613062430886  0.0075089092275023  0.1221999321681317
  0.0002923742985952  0.0020550776862747  0.3712039538193786
 -0.0005867300098413  0.0003428088251294  0.6206757407865601
 -0.0086751601315489 -0.0057549410461207  0.8779103864051853
 -0.0000076187539827  0.2539229351607274  0.1247121512567612
 -0.0004567155132104  0.2553294776430865  0.3783770253629342
  0.0069220245380546  0.2506343434833673  0.6230020806385611
 -0.0006788282592454  0.2437432545905499  0.8723072335876992
  0.0027589597691965  0.4988609093509433  0.1316407718060922
 -0.0075976854467772  0.5000337804600843  0.3787356783898511
  0.0003042832535939  0.4969485445658827  0.6237372906330091
  0.0060692315269782  0.4960643846700044  0.8804216932574153
  0.0045407429869883  0.7540705553664095  0.1233956938657783
 -0.0041272531919136  0.7508789429726169  0.3714712403191054
  0.0011414213795193  0.7479821285010944  0.6193690493016289
 -0.0061204154471029  0.7525906873813224  0.8774258926794634
  0.2621987099508979 -0.0012934705475301  0.1250103914093336
  0.2563118000360175 -0.0005875542781878  0.3677929635319623
  0.2467471922700819  0.0036294354289039  0.6281505223980035
  0.2480485441772364  0.0001605545171364  0.8847889831301591
  0.2528443417947525  0.2534508215354297  0.1282231787988960
  0.2525168769197749  0.2435840138347543  0.3780479668622590
  0.2501806253412988  0.2506783392763556  0.6173553172406667
  0.2485646802577873  0.2563847243692411  0.8770240489912693
  0.2436393319817647  0.5039367468111093  0.1264730099943127
  0.2444367634808475  0.4976601783156410  0.3814499860695795
  0.2475463860950625  0.5056005331677234  0.6292895717580389
  0.2464785875538040  0.5004584333383507  0.8710035787159041
  0.2477450784683690  0.7542631134207549  0.1231920251438359
  0.2535093564818219  0.7492502291824927  0.3798474554813172
  0.2551196116995065  0.7581889695000408  0.6321741474125324
  0.2551881307936327  0.7479360646486443  0.8758921942333070
  0.4969201467568726 -0.0034431190770620  0.1164931755265490
  0.5090473814391157 -0.0056515030860877  0.3751183397391832
  0.5060312595839316  0.0009660311654621  0.6282593553089143
  0.5015856861672454 -0.0025578607763524  0.8743020617281970
  0.5005646357241665  0.2475045577389177  0.1197348998629784
  0.5008910979642782  0.2526004336159088  0.3789282330737579
  0.5062382276606506  0.2492173961390861  0.6192757203320806