Si
 1.0000000000000000
     5.4699999999999998    5.4699999999999998    0.0000000000000000
     0.0000000000000000    5.4699999999999998    5.4699999999999998
     5.4699999999999998    0.0000000000000000    5.4699999999999998
 Si 
  15
Direct
 -0.0005331800277568 -0.0005331800277568 -0.0005331800277568
  0.1252023679502287  0.1252023679502288  0.1252023679502286
 -0.0004580151784416 -0.0004580151784418  0.5024397274202138
  0.1275641862131401  0.1275641862131399  0.6229104075748035
 -0.0004580151784416  0.5024397274202141 -0.0004580151784419
  0.1275641862131399  0.6229104075748039  0.1275641862131402
 -0.0129661523678221  0.5048058558528564  0.5048058558528566
  0.1280912149095761  0.6229732575675073  0.6229732575675071
  0.5024397274202143 -0.0004580151784419 -0.0004580151784417
  0.6229104075748035  0.1275641862131403  0.1275641862131399
  0.5048058558528569 -0.0129661523678219  0.5048058558528564
  0.6229732575675079  0.1280912149095755  0.6229732575675077
  0.5048058558528568  0.5048058558528565 -0.0129661523678219
  0.6229732575675081  0.6229732575675077  0.1280912149095752
  0.5055849097397872  0.5055849097397868  0.5055849097397861
