     1 F= -.35508242E+02 E0= -.35508242E+02  d E =-.355082E+02
     2 F= -.35508764E+02 E0= -.35508764E+02  d E =-.521750E-03
     3 F= -.35508844E+02 E0= -.35508844E+02  d E =-.795133E-04
     4 F= -.35509768E+02 E0= -.35509768E+02  d E =-.924647E-03
     5 F= -.35510545E+02 E0= -.35510545E+02  d E =-.776314E-03
     6 F= -.35511150E+02 E0= -.35511150E+02  d E =-.605844E-03
     7 F= -.35511265E+02 E0= -.35511265E+02  d E =-.114332E-03
     8 F= -.35511275E+02 E0= -.35511275E+02  d E =-.101867E-04
