 vasp-mace (MACE/ASE interface) -- VASP-compatible OUTCAR
 NIONS =   4

 INCAR:
   NSW = 100
   ISIF = 3
   EDIFFG = -0.01
   IVDW = 13

 ions per type = 2  2
 POMASS = 10.810  14.007

 ------------------------------------------------------------------------------------------------------


 --------------------------------------- Iteration     1(   1)  ---------------------------------------

  FORCE on cell =-STRESS in cart. coord.  units (eV):
  Direction    XX          YY          ZZ          XY          YZ          ZX
  --------------------------------------------------------------------------------------
  Total       0.16077     0.15369     0.23369     0.00001     0.00000     0.00000
  in kB       7.11686     6.80342    10.34480     0.00044     0.00000     0.00000
  external pressure =        8.09 kB  Pullay stress =        0.00 kB

 VOLUME and BASIS-vectors are now :
 -----------------------------------------------------------------------------
  volume of cell :       36.19
      direct lattice vectors                 reciprocal lattice vectors
   2.504436192  0.000000025  0.000000000    0.399291464  0.230514463 -0.000000000
  -1.252218074  2.169061243  0.000000000   -0.000000005  0.461028935 -0.000000000
   0.000000000  0.000000000  6.662602269   -0.000000000 -0.000000000  0.150091505

  length of vectors
   2.504436192  2.504571177  6.662602269    0.461053783  0.461028935  0.150091505

 POSITION                                       TOTAL-FORCE (eV/Angst)
 -----------------------------------------------------------------------------------
      0.00000      1.44605      1.66565        -0.000000      0.000136      0.000000
      1.25222      0.72301      4.99695         0.000000     -0.000136     -0.000000
      1.25222      0.72301      1.66565        -0.000000     -0.000143     -0.000000
      0.00000      1.44605      4.99695         0.000000      0.000143      0.000000
 -----------------------------------------------------------------------------------
    total drift:                                   -0.000000      0.000000     -0.000000


  FREE ENERGIE OF THE ION-ELECTRON SYSTEM (eV)
  ---------------------------------------------------
  free  energy   TOTEN  =             -35.50824236 eV

  energy  without entropy=            -35.50824236  energy(sigma->0) =            -35.50824236

 ------------------------------------------------------------------------------------------------------

 --------------------------------------- Iteration     2(   1)  ---------------------------------------

  FORCE on cell =-STRESS in cart. coord.  units (eV):
  Direction    XX          YY          ZZ          XY          YZ          ZX
  --------------------------------------------------------------------------------------
  Total      -0.12948    -0.12790     0.21278    -0.00000    -0.00000     0.00000
  in kB      -5.70265    -5.63318     9.37195    -0.00002    -0.00000     0.00000
  external pressure =       -0.65 kB  Pullay stress =        0.00 kB

 VOLUME and BASIS-vectors are now :
 -----------------------------------------------------------------------------
  volume of cell :       36.38
      direct lattice vectors                 reciprocal lattice vectors
   2.508170928  0.000000252  0.000000000    0.398696887  0.230186268 -0.000000000
  -1.254085246  2.172153397  0.000000000   -0.000000046  0.460372616 -0.000000000
   0.000000000  0.000000000  6.676860347   -0.000000000 -0.000000000  0.149770992

  length of vectors
   2.508170928  2.508182646  6.676860347    0.460374767  0.460372616  0.149770992

 POSITION                                       TOTAL-FORCE (eV/Angst)
 -----------------------------------------------------------------------------------
      0.00000      1.44814      1.66922        -0.000002     -0.001604     -0.000000
      1.25409      0.72402      5.00765         0.000002      0.001604      0.000000
      1.25409      0.72402      1.66922         0.000002      0.001612      0.000000
      0.00000      1.44814      5.00765        -0.000002     -0.001612      0.000000
 -----------------------------------------------------------------------------------
    total drift:                                   -0.000000     -0.000000      0.000000


  FREE ENERGIE OF THE ION-ELECTRON SYSTEM (eV)
  ---------------------------------------------------
  free  energy   TOTEN  =             -35.50876411 eV

  energy  without entropy=            -35.50876411  energy(sigma->0) =            -35.50876411

 ------------------------------------------------------------------------------------------------------

 --------------------------------------- Iteration     3(   1)  ---------------------------------------

  FORCE on cell =-STRESS in cart. coord.  units (eV):
  Direction    XX          YY          ZZ          XY          YZ          ZX
  --------------------------------------------------------------------------------------
  Total      -0.15261    -0.15110     0.20761    -0.00000     0.00000     0.00000
  in kB      -6.71659    -6.64976     9.13696    -0.00006     0.00000     0.00000
  external pressure =       -1.41 kB  Pullay stress =        0.00 kB

 VOLUME and BASIS-vectors are now :
 -----------------------------------------------------------------------------
  volume of cell :       36.40
      direct lattice vectors                 reciprocal lattice vectors
   2.508480523  0.000000288  0.000000000    0.398647677  0.230160016 -0.000000000
  -1.254240011  2.172401078  0.000000000   -0.000000053  0.460320124 -0.000000000
   0.000000000  0.000000000  6.680442667   -0.000000000 -0.000000000  0.149690679

  length of vectors
   2.508480523  2.508474526  6.680442667    0.460319024  0.460320124  0.149690679

 POSITION                                       TOTAL-FORCE (eV/Angst)
 -----------------------------------------------------------------------------------
      0.00000      1.44829      1.67011        -0.000001     -0.000896     -0.000000
      1.25424      0.72412      5.01033         0.000001      0.000896     -0.000000
      1.25424      0.72411      1.67011         0.000001      0.000901      0.000000
      0.00000      1.44829      5.01033        -0.000001     -0.000901      0.000000
 -----------------------------------------------------------------------------------
    total drift:                                    0.000000     -0.000000      0.000000


  FREE ENERGIE OF THE ION-ELECTRON SYSTEM (eV)
  ---------------------------------------------------
  free  energy   TOTEN  =             -35.50884362 eV

  energy  without entropy=            -35.50884362  energy(sigma->0) =            -35.50884362

 ------------------------------------------------------------------------------------------------------

 --------------------------------------- Iteration     4(   1)  ---------------------------------------

  FORCE on cell =-STRESS in cart. coord.  units (eV):
  Direction    XX          YY          ZZ          XY          YZ          ZX
  --------------------------------------------------------------------------------------
  Total      -0.30232    -0.30070     0.13785    -0.00001     0.00000     0.00000
  in kB     -13.18730   -13.11665     6.01323    -0.00052     0.00000     0.00000
  external pressure =       -6.76 kB  Pullay stress =        0.00 kB

 VOLUME and BASIS-vectors are now :
 -----------------------------------------------------------------------------
  volume of cell :       36.73
      direct lattice vectors                 reciprocal lattice vectors
   2.510555106  0.000000713  0.000000000    0.398318218  0.229995499 -0.000000000
  -1.255276935  2.173954164  0.000000000   -0.000000131  0.459991224 -0.000000000
   0.000000000  0.000000000  6.729824364   -0.000000000 -0.000000000  0.148592288

  length of vectors
   2.510555106  2.510338003  6.729824364    0.459951445  0.459991224  0.148592288

 POSITION                                       TOTAL-FORCE (eV/Angst)
 -----------------------------------------------------------------------------------
      0.00000      1.44913      1.68246         0.000008      0.007020     -0.000000
      1.25528      0.72482      5.04737        -0.000008     -0.007020     -0.000000
      1.25528      0.72482      1.68246        -0.000008     -0.007050      0.000000
      0.00000      1.44914      5.04737         0.000008      0.007050     -0.000000
 -----------------------------------------------------------------------------------
    total drift:                                    0.000000     -0.000000     -0.000000


  FREE ENERGIE OF THE ION-ELECTRON SYSTEM (eV)
  ---------------------------------------------------
  free  energy   TOTEN  =             -35.50976827 eV

  energy  without entropy=            -35.50976827  energy(sigma->0) =            -35.50976827

 ------------------------------------------------------------------------------------------------------

 --------------------------------------- Iteration     5(   1)  ---------------------------------------

  FORCE on cell =-STRESS in cart. coord.  units (eV):
  Direction    XX          YY          ZZ          XY          YZ          ZX
  --------------------------------------------------------------------------------------
  Total      -0.30339    -0.29725     0.06828    -0.00002     0.00000    -0.00000
  in kB     -13.13460   -12.86865     2.95604    -0.00099     0.00000    -0.00000
  external pressure =       -7.68 kB  Pullay stress =        0.00 kB

 VOLUME and BASIS-vectors are now :
 -----------------------------------------------------------------------------
  volume of cell :       37.01
      direct lattice vectors                 reciprocal lattice vectors
   2.510667941  0.000001068  0.000000000    0.398300284  0.230007687 -0.000000000
  -1.255333046  2.173838258  0.000000000   -0.000000196  0.460015712 -0.000000000
   0.000000000  0.000000000  6.780788183   -0.000000000 -0.000000000  0.147475481

  length of vectors
   2.510667941  2.510265689  6.780788183    0.459942010  0.460015712  0.147475481

 POSITION                                       TOTAL-FORCE (eV/Angst)
 -----------------------------------------------------------------------------------
      0.00000      1.44896      1.69520         0.000012      0.010630     -0.000000
      1.25533      0.72488      5.08559        -0.000012     -0.010630     -0.000000
      1.25533      0.72487      1.69520        -0.000012     -0.010673      0.000000
      0.00000      1.44896      5.08559         0.000012      0.010673     -0.000000
 -----------------------------------------------------------------------------------
    total drift:                                    0.000000     -0.000000      0.000000


  FREE ENERGIE OF THE ION-ELECTRON SYSTEM (eV)
  ---------------------------------------------------
  free  energy   TOTEN  =             -35.51054459 eV

  energy  without entropy=            -35.51054459  energy(sigma->0) =            -35.51054459

 ------------------------------------------------------------------------------------------------------

 --------------------------------------- Iteration     6(   1)  ---------------------------------------

  FORCE on cell =-STRESS in cart. coord.  units (eV):
  Direction    XX          YY          ZZ          XY          YZ          ZX
  --------------------------------------------------------------------------------------
  Total      -0.16110    -0.14498     0.00270    -0.00003     0.00000     0.00000
  in kB      -6.93482    -6.24103     0.11618    -0.00143     0.00000     0.00000
  external pressure =       -4.35 kB  Pullay stress =        0.00 kB

 VOLUME and BASIS-vectors are now :
 -----------------------------------------------------------------------------
  volume of cell :       37.22
      direct lattice vectors                 reciprocal lattice vectors
   2.508847252  0.000001292  0.000000000    0.398589313  0.230190611 -0.000000000
  -1.254422507  2.172110336  0.000000000   -0.000000237  0.460381633 -0.000000000
   0.000000000  0.000000000  6.829762639   -0.000000000 -0.000000000  0.146417973

  length of vectors
   2.508847252  2.508314003  6.829762639    0.460283780  0.460381633  0.146417973

 POSITION                                       TOTAL-FORCE (eV/Angst)
 -----------------------------------------------------------------------------------
      0.00000      1.44785      1.70744         0.000009      0.008054     -0.000000
      1.25442      0.72426      5.12232        -0.000009     -0.008054     -0.000000
      1.25442      0.72425      1.70744        -0.000009     -0.008072      0.000000
      0.00000      1.44786      5.12232         0.000009      0.008072     -0.000000
 -----------------------------------------------------------------------------------
    total drift:                                    0.000000     -0.000000     -0.000000


  FREE ENERGIE OF THE ION-ELECTRON SYSTEM (eV)
  ---------------------------------------------------
  free  energy   TOTEN  =             -35.51115043 eV

  energy  without entropy=            -35.51115043  energy(sigma->0) =            -35.51115043

 ------------------------------------------------------------------------------------------------------

 --------------------------------------- Iteration     7(   1)  ---------------------------------------

  FORCE on cell =-STRESS in cart. coord.  units (eV):
  Direction    XX          YY          ZZ          XY          YZ          ZX
  --------------------------------------------------------------------------------------
  Total      -0.04567    -0.02442    -0.00733    -0.00003    -0.00000    -0.00000
  in kB      -1.96620    -1.05146    -0.31546    -0.00144    -0.00000    -0.00000
  external pressure =       -1.11 kB  Pullay stress =        0.00 kB

 VOLUME and BASIS-vectors are now :
 -----------------------------------------------------------------------------
  volume of cell :       37.21
      direct lattice vectors                 reciprocal lattice vectors
   2.507298050  0.000001201  0.000000000    0.398835600  0.230328593 -0.000000000
  -1.253647985  2.170809276  0.000000000   -0.000000221  0.460657569 -0.000000000
   0.000000000  0.000000000  6.837311070   -0.000000000 -0.000000000  0.146256326

  length of vectors
   2.507298050  2.506799989  6.837311070    0.460566062  0.460657569  0.146256326

 POSITION                                       TOTAL-FORCE (eV/Angst)
 -----------------------------------------------------------------------------------
      0.00000      1.44710      1.70933         0.000004      0.002932     -0.000000
      1.25365      0.72371      5.12798        -0.000004     -0.002932     -0.000000
      1.25365      0.72371      1.70933        -0.000004     -0.002919      0.000000
      0.00000      1.44710      5.12798         0.000004      0.002919     -0.000000
 -----------------------------------------------------------------------------------
    total drift:                                    0.000000      0.000000     -0.000000


  FREE ENERGIE OF THE ION-ELECTRON SYSTEM (eV)
  ---------------------------------------------------
  free  energy   TOTEN  =             -35.51126476 eV

  energy  without entropy=            -35.51126476  energy(sigma->0) =            -35.51126476

 ------------------------------------------------------------------------------------------------------

 --------------------------------------- Iteration     8(   1)  ---------------------------------------

  FORCE on cell =-STRESS in cart. coord.  units (eV):
  Direction    XX          YY          ZZ          XY          YZ          ZX
  --------------------------------------------------------------------------------------
  Total      -0.01179     0.00920    -0.00201    -0.00003     0.00000     0.00000
  in kB      -0.50796     0.39644    -0.08648    -0.00129     0.00000     0.00000
  external pressure =       -0.07 kB  Pullay stress =        0.00 kB

 VOLUME and BASIS-vectors are now :
 -----------------------------------------------------------------------------
  volume of cell :       37.18
      direct lattice vectors                 reciprocal lattice vectors
   2.506818694  0.000001066  0.000000000    0.398911879  0.230364496 -0.000000000
  -1.253408424  2.170471220  0.000000000   -0.000000196  0.460729332 -0.000000000
   0.000000000  0.000000000  6.833320438   -0.000000000 -0.000000000  0.146341740

  length of vectors
   2.506818694  2.506387439  6.833320438    0.460650071  0.460729332  0.146341740

 POSITION                                       TOTAL-FORCE (eV/Angst)
 -----------------------------------------------------------------------------------
      0.00000      1.44693      1.70833         0.000001      0.000645      0.000000
      1.25341      0.72355      5.12499        -0.000001     -0.000645     -0.000000
      1.25341      0.72354      1.70833        -0.000001     -0.000622      0.000000
      0.00000      1.44693      5.12499         0.000001      0.000622     -0.000000
 -----------------------------------------------------------------------------------
    total drift:                                   -0.000000     -0.000000      0.000000


  FREE ENERGIE OF THE ION-ELECTRON SYSTEM (eV)
  ---------------------------------------------------
  free  energy   TOTEN  =             -35.51127495 eV

  energy  without entropy=            -35.51127495  energy(sigma->0) =            -35.51127495

 ------------------------------------------------------------------------------------------------------

 reached required accuracy - stopping structural energy minimisation


 General timing and accounting informations for this job:
 ========================================================

                  Total CPU time used (sec):       28.091
                         Elapsed time (sec):        9.855

                   Maximum memory used (kb):          N/A
                   Average memory used (kb):          N/A
