B2N2
   1.00000000
   2.504436192   0.000000025   0.000000000
  -1.252218074   2.169061243   0.000000000
   0.000000000   0.000000000   6.662602269
  B  N
  2  2
Direct configuration=     1
   0.333335502   0.666671007   0.250000000
   0.666664498   0.333328993   0.750000000
   0.666664465   0.333328926   0.250000000
   0.333335535   0.666671074   0.750000000
B2N2
   1.00000000
   2.508170928   0.000000252   0.000000000
  -1.254085246   2.172153397   0.000000000
   0.000000000   0.000000000   6.676860347
  B  N
  2  2
Direct configuration=     2
   0.333341205   0.666682412   0.250000000
   0.666658795   0.333317588   0.750000000
   0.666658521   0.333317049   0.250000000
   0.333341479   0.666682951   0.750000000
B2N2
   1.00000000
   2.508480523   0.000000288   0.000000000
  -1.254240011   2.172401078   0.000000000
   0.000000000   0.000000000   6.680442667
  B  N
  2  2
Direct configuration=     3
   0.333337405   0.666674829   0.250000000
   0.666662595   0.333325171   0.750000000
   0.666662308   0.333324605   0.250000000
   0.333337692   0.666675395   0.750000000
B2N2
   1.00000000
   2.510555106   0.000000713   0.000000000
  -1.255276935   2.173954164   0.000000000
   0.000000000   0.000000000   6.729824364
  B  N
  2  2
Direct configuration=     4
   0.333294253   0.666588731   0.250000000
   0.666705747   0.333411269   0.750000000
   0.666705291   0.333410386   0.250000000
   0.333294709   0.666589614   0.750000000
B2N2
   1.00000000
   2.510667941   0.000001068   0.000000000
  -1.255333046   2.173838258   0.000000000
   0.000000000   0.000000000   6.780788183
  B  N
  2  2
Direct configuration=     5
   0.333272483   0.666545312   0.250000000
   0.666727517   0.333454688   0.750000000
   0.666726839   0.333453383   0.250000000
   0.333273161   0.666546617   0.750000000
B2N2
   1.00000000
   2.508847252   0.000001292   0.000000000
  -1.254422507   2.172110336   0.000000000
   0.000000000   0.000000000   6.829762639
  B  N
  2  2
Direct configuration=     6
   0.333282366   0.666565064   0.250000000
   0.666717634   0.333434936   0.750000000
   0.666716683   0.333433105   0.250000000
   0.333283317   0.666566895   0.750000000
B2N2
   1.00000000
   2.507298050   0.000001201   0.000000000
  -1.253647985   2.170809276   0.000000000
   0.000000000   0.000000000   6.837311070
  B  N
  2  2
Direct configuration=     7
   0.333308172   0.666616572   0.250000000
   0.666691828   0.333383428   0.750000000
   0.666690841   0.333381526   0.250000000
   0.333309159   0.666618474   0.750000000
B2N2
   1.00000000
   2.506818694   0.000001066   0.000000000
  -1.253408424   2.170471220   0.000000000
   0.000000000   0.000000000   6.833320438
  B  N
  2  2
Direct configuration=     8
   0.333320753   0.666641675   0.250000000
   0.666679247   0.333358325   0.750000000
   0.666678351   0.333356602   0.250000000
   0.333321649   0.666643398   0.750000000
